data_cof-300-v_cryo
_audit_creation_date               2019-05-06
_audit_creation_method
;
Olex2 1.2
(compiled 2018.05.29 svn.r3508 for OlexSys, GUI svn.r5506)
;
_shelx_SHELXL_version_number       '2017/1'
_audit_contact_author_address      ?
_audit_contact_author_email        ?
_audit_contact_author_name         ''
_audit_contact_author_phone        ?
_publ_contact_author_id_orcid      ?
_publ_section_references
;
Dolomanov, O.V., Bourhis, L.J., Gildea, R.J, Howard, J.A.K. & Puschmann, H.
 (2009), J. Appl. Cryst. 42, 339-341.

Sheldrick, G.M. (2008). Acta Cryst. A64, 112-122.
;
_chemical_name_common              ?
_chemical_name_systematic          COF-300-V_Cryo
_chemical_formula_moiety           '0.25(C164 H112 N16)'
_chemical_formula_sum              'C41 H28 N4'
_chemical_formula_weight           576.67
_chemical_melting_point            ?
loop_
  _atom_type_symbol
  _atom_type_description
  _atom_type_scat_dispersion_real
  _atom_type_scat_dispersion_imag
  _atom_type_scat_source
 'C' 'C' 0.0033 0.0016 'International Tables Vol C Tables 4.2.6.8 and 6.1.1.4'
 'N' 'N' 0.0061 0.0033 'International Tables Vol C Tables 4.2.6.8 and 6.1.1.4'
 'H' 'H' 0.0000 0.0000 'International Tables Vol C Tables 4.2.6.8 and 6.1.1.4'

_shelx_space_group_comment
;
The symmetry employed for this shelxl refinement is uniquely defined
by the following loop, which should always be used as a source of
symmetry information in preference to the above space-group names.
They are only intended as comments.
;
_space_group_crystal_system        'tetragonal'
_space_group_IT_number             88
_space_group_name_H-M_alt          'I 41/a'
_space_group_name_Hall             '-I 4ad'
loop_
  _space_group_symop_operation_xyz
 'x, y, z'
 '-y+3/4, x+1/4, z+1/4'
 '-x+1/2, -y, z+1/2'
 'y+3/4, -x+3/4, z+3/4'
 'x+1/2, y+1/2, z+1/2'
 '-y+5/4, x+3/4, z+3/4'
 '-x+1, -y+1/2, z+1'
 'y+5/4, -x+5/4, z+5/4'
 '-x, -y, -z'
 'y-3/4, -x-1/4, -z-1/4'
 'x-1/2, y, -z-1/2'
 '-y-3/4, x-3/4, -z-3/4'
 '-x+1/2, -y+1/2, -z+1/2'
 'y-1/4, -x+1/4, -z+1/4'
 'x, y+1/2, -z'
 '-y-1/4, x-1/4, -z-1/4'

_cell_length_a                     20.500
_cell_length_b                     20.500
_cell_length_c                     9.100
_cell_angle_alpha                  90
_cell_angle_beta                   90
_cell_angle_gamma                  90
_cell_volume                       3824.3
_cell_formula_units_Z              4
_cell_measurement_reflns_used      ?
_cell_measurement_temperature      77
_cell_measurement_theta_max        ?
_cell_measurement_theta_min        ?
_shelx_estimated_absorpt_T_max     1.000
_shelx_estimated_absorpt_T_min     1.000
_exptl_absorpt_coefficient_mu      0.059
_exptl_absorpt_correction_T_max    ?
_exptl_absorpt_correction_T_min    ?
_exptl_absorpt_correction_type     none
_exptl_absorpt_process_details     ?
_exptl_absorpt_special_details     ?
_exptl_crystal_colour              'dull light yellow'
_exptl_crystal_colour_lustre       dull
_exptl_crystal_colour_modifier     light
_exptl_crystal_colour_primary      yellow
_exptl_crystal_density_diffrn      1.002
_exptl_crystal_density_meas        ?
_exptl_crystal_density_method      ?
_exptl_crystal_description         prism
_exptl_crystal_F_000               1208
_exptl_crystal_preparation        
 'Dispersed in water and evacuated to complete remove of water'
_exptl_crystal_recrystallization_method 
 'Y.-B. Zhang, et al. J. Am. Chem. Soc. 2019, 141, 3298'
_exptl_crystal_size_max            0.001
_exptl_crystal_size_mid            0.0004
_exptl_crystal_size_min            0.0004
_exptl_transmission_factor_max     ?
_exptl_transmission_factor_min     ?
_diffrn_reflns_av_R_equivalents    0.3003
_diffrn_reflns_av_unetI/netI       0.1820
_diffrn_reflns_Laue_measured_fraction_full  0.501
_diffrn_reflns_Laue_measured_fraction_max  0.501
_diffrn_reflns_limit_h_max         15
_diffrn_reflns_limit_h_min         -14
_diffrn_reflns_limit_k_max         22
_diffrn_reflns_limit_k_min         -22
_diffrn_reflns_limit_l_max         10
_diffrn_reflns_limit_l_min         -9
_diffrn_reflns_number              2388
_diffrn_reflns_point_group_measured_fraction_full  0.501
_diffrn_reflns_point_group_measured_fraction_max  0.501
_diffrn_reflns_theta_full          0.804
_diffrn_reflns_theta_max           0.804
_diffrn_reflns_theta_min           0.086
_diffrn_ambient_temperature        77
_diffrn_detector_area_resol_mean   ?
_diffrn_measured_fraction_theta_full  0.501
_diffrn_measured_fraction_theta_max  0.501
_diffrn_measurement_device_type    'JOEL JEM 2100 Plus with TVIPS CMOS'
_diffrn_measurement_method         ?
_diffrn_radiation_type             ?
_diffrn_radiation_wavelength       0.0251
_diffrn_source                     ?
_reflns_Friedel_coverage           0.000
_reflns_Friedel_fraction_full      .
_reflns_Friedel_fraction_max       .
_reflns_number_gt                  594
_reflns_number_total               700
_reflns_special_details
;
 Reflections were merged by SHELXL according to the crystal
 class for the calculation of statistics and refinement.
 
 _reflns_Friedel_fraction is defined as the number of unique
 Friedel pairs measured divided by the number that would be
 possible theoretically, ignoring centric projections and
 systematic absences.
;
_reflns_threshold_expression       'I > 2\s(I)'
_computing_cell_refinement         ?
_computing_data_collection         ?
_computing_data_reduction          ?
_computing_molecular_graphics      'Olex2 (Dolomanov et al., 2009)'
_computing_publication_material    'Olex2 (Dolomanov et al., 2009)'
_computing_structure_refinement    'XL (Sheldrick, 2008)'
_computing_structure_solution      'ShelXS (Sheldrick, 2008)'
_refine_diff_density_max           0.314
_refine_diff_density_min           -0.343
_refine_diff_density_rms           0.103
_refine_ls_extinction_coef         .
_refine_ls_extinction_method       none
_refine_ls_goodness_of_fit_ref     1.050
_refine_ls_hydrogen_treatment      constr
_refine_ls_matrix_type             full
_refine_ls_number_parameters       60
_refine_ls_number_reflns           700
_refine_ls_number_restraints       219
_refine_ls_R_factor_all            0.3377
_refine_ls_R_factor_gt             0.3175
_refine_ls_restrained_S_all        0.923
_refine_ls_shift/su_max            0.000
_refine_ls_shift/su_mean           0.000
_refine_ls_structure_factor_coef   Fsqd
_refine_ls_weighting_details      
 'w=1/[\s^2^(Fo^2^)+(0.2000P)^2^+120.0000P] where P=(Fo^2^+2Fc^2^)/3'
_refine_ls_weighting_scheme        calc
_refine_ls_wR_factor_gt            0.6190
_refine_ls_wR_factor_ref           0.6295
_refine_special_details            ?
_olex2_refinement_description
;
1. Fixed Uiso
 At 1.2 times of:
  All C(H) groups
2. Restrained distances
 C2-C4 \\sim C2-C6 \\sim C6-C4 \\sim C3-C7 \\sim C7-C5 \\sim C5-C3 \\sim
C9-C11_$1 \\sim C9-C10_$1 ~
 C10_$1-C11_$1 \\sim C10-C11 \\sim C11-C9_$1 \\sim C9_$1-C10
 with sigma of 0.02
 C3-C2 \\sim C4-C3 \\sim C5-C4 \\sim C6-C5 \\sim C7-C6 \\sim C7-C2 \\sim C9-C11
\\sim C9-C10 \\sim C11_$1-C10
 \\sim C9_$1-C11_$1 \\sim C9_$1-C10_$1 \\sim C11-C10_$1
 with sigma of 0.02
3. Restrained planarity
 C2, C7, C6, C5, C4, C3
 with sigma of 0.1
 C9, C10, C11_$1, C9_$1, C10_$1, C11
 with sigma of 0.1
4. Uiso/Uaniso restraints and constraints
Uanis(C2) = Uanis(C3) = Uanis(C4) = Uanis(C5) = Uanis(C6) = Uanis(C7)
Uanis(C11) = Uanis(C10) = Uanis(C9)
5. Rigid body (RIGU) restrains
 C11, C9, C8, C10, N1, C5, C4, C3, C2, C7, C6, C1
 with sigma for 1-2 distances of 0.004 and sigma for 1-3 distances of 0.004
6.a Aromatic/amide H refined with riding coordinates:
 C4(H4), C3(H3), C7(H7), C6(H6), C8(H8), C10(H10), C11(H11)
;
_atom_sites_solution_hydrogens     geom
_atom_sites_solution_primary       direct
_atom_sites_solution_secondary     ?
loop_
  _atom_site_label
  _atom_site_type_symbol
  _atom_site_fract_x
  _atom_site_fract_y
  _atom_site_fract_z
  _atom_site_U_iso_or_equiv
  _atom_site_adp_type
  _atom_site_occupancy
  _atom_site_site_symmetry_order
  _atom_site_calc_flag
  _atom_site_refinement_flags_posn
  _atom_site_refinement_flags_adp
  _atom_site_refinement_flags_occupancy
  _atom_site_disorder_assembly
  _atom_site_disorder_group
 C1 C 0.000000 0.250000 0.125000 0.119(10) Uani 1 4 d S TU P . .
 C5 C 0.0206(10) 0.3969(12) 0.483(2) 0.122(5) Uani 1 1 d D U . . .
 C4 C -0.0416(10) 0.3653(13) 0.454(2) 0.122(5) Uani 1 1 d D U . . .
 H4 H -0.077054 0.372567 0.515324 0.147 Uiso 1 1 calc R . . . .
 C3 C -0.0481(9) 0.3224(11) 0.327(2) 0.122(5) Uani 1 1 d D U . . .
 H3 H -0.088666 0.304888 0.304006 0.147 Uiso 1 1 calc R . . . .
 C2 C 0.0081(10) 0.3068(12) 0.2377(19) 0.122(5) Uani 1 1 d D U . . .
 C7 C 0.0707(10) 0.3377(11) 0.2691(18) 0.122(5) Uani 1 1 d D U . . .
 H7 H 0.106801 0.328477 0.210864 0.147 Uiso 1 1 calc R . . . .
 C6 C 0.0765(10) 0.3828(11) 0.3913(19) 0.122(5) Uani 1 1 d D U . . .
 H6 H 0.116346 0.402745 0.410706 0.147 Uiso 1 1 calc R . . . .
 C8 C -0.023(2) 0.4566(10) 0.700(3) 0.152(12) Uani 1 1 d . U . . .
 H8 H -0.063932 0.463017 0.657716 0.183 Uiso 1 1 calc R . . . .
 N1 N 0.0261(19) 0.4240(13) 0.632(2) 0.170(11) Uani 1 1 d . U . . .
 C9 C -0.0061(12) 0.4808(12) 0.8475(15) 0.162(10) Uani 1 1 d D U . . .
 C10 C -0.0642(8) 0.4936(13) 0.933(2) 0.162(10) Uani 1 1 d D U . . .
 H10 H -0.105166 0.489622 0.890627 0.194 Uiso 1 1 calc R . . . .
 C11 C 0.0582(9) 0.4874(14) 0.913(2) 0.162(10) Uani 1 1 d D U . . .
 H11 H 0.095307 0.479410 0.857119 0.194 Uiso 1 1 calc R . . . .

loop_
  _atom_site_aniso_label
  _atom_site_aniso_U_11
  _atom_site_aniso_U_22
  _atom_site_aniso_U_33
  _atom_site_aniso_U_23
  _atom_site_aniso_U_13
  _atom_site_aniso_U_12
 C1 0.123(19) 0.123(19) 0.11(2) 0.000 0.000 0.000
 C5 0.140(10) 0.136(11) 0.090(6) 0.003(5) 0.031(6) -0.035(9)
 C4 0.140(10) 0.136(11) 0.090(6) 0.003(5) 0.031(6) -0.035(9)
 C3 0.140(10) 0.136(11) 0.090(6) 0.003(5) 0.031(6) -0.035(9)
 C2 0.140(10) 0.136(11) 0.090(6) 0.003(5) 0.031(6) -0.035(9)
 C7 0.140(10) 0.136(11) 0.090(6) 0.003(5) 0.031(6) -0.035(9)
 C6 0.140(10) 0.136(11) 0.090(6) 0.003(5) 0.031(6) -0.035(9)
 C8 0.32(4) 0.036(13) 0.105(13) -0.020(11) -0.021(14) 0.03(2)
 N1 0.28(3) 0.12(2) 0.104(11) -0.018(12) -0.038(13) 0.05(2)
 C9 0.25(3) 0.135(15) 0.106(11) -0.028(10) -0.011(11) 0.03(2)
 C10 0.25(3) 0.135(15) 0.106(11) -0.028(10) -0.011(11) 0.03(2)
 C11 0.25(3) 0.135(15) 0.106(11) -0.028(10) -0.011(11) 0.03(2)

_geom_special_details
;
 All esds (except the esd in the dihedral angle between two l.s. planes)
 are estimated using the full covariance matrix.  The cell esds are taken
 into account individually in the estimation of esds in distances, angles
 and torsion angles; correlations between esds in cell parameters are only
 used when they are defined by crystal symmetry.  An approximate (isotropic)
 treatment of cell esds is used for estimating esds involving l.s. planes.
;
loop_
  _geom_bond_atom_site_label_1
  _geom_bond_atom_site_label_2
  _geom_bond_distance
  _geom_bond_site_symmetry_2
  _geom_bond_publ_flag
 C1 C2 1.560(19) . ?
 C1 C2 1.561(19) 12_666 ?
 C1 C2 1.561(19) 14 ?
 C1 C2 1.561(19) 7_454 ?
 C5 C4 1.455(15) . ?
 C5 C6 1.448(15) . ?
 C5 N1 1.47(3) . ?
 C4 H4 0.9300 . ?
 C4 C3 1.453(15) . ?
 C3 H3 0.9300 . ?
 C3 C2 1.448(15) . ?
 C2 C7 1.459(15) . ?
 C7 H7 0.9300 . ?
 C7 C6 1.451(15) . ?
 C6 H6 0.9300 . ?
 C8 H8 0.9300 . ?
 C8 N1 1.36(4) . ?
 C8 C9 1.47(3) . ?
 C9 C10 1.448(13) . ?
 C9 C11 1.452(13) . ?
 C10 H10 0.9300 . ?
 C10 C11 1.457(13) 9_567 ?
 C11 H11 0.9300 . ?

loop_
  _geom_angle_atom_site_label_1
  _geom_angle_atom_site_label_2
  _geom_angle_atom_site_label_3
  _geom_angle
  _geom_angle_site_symmetry_1
  _geom_angle_site_symmetry_3
  _geom_angle_publ_flag
 C2 C1 C2 115.6(9) . 12_666 ?
 C2 C1 C2 115.6(9) 12_666 7_454 ?
 C2 C1 C2 97.9(16) 12_666 14 ?
 C2 C1 C2 115.6(9) 14 7_454 ?
 C2 C1 C2 97.9(16) . 7_454 ?
 C2 C1 C2 115.6(9) . 14 ?
 C4 C5 N1 114(2) . . ?
 C6 C5 C4 119.9(10) . . ?
 C6 C5 N1 123(2) . . ?
 C5 C4 H4 120.1 . . ?
 C3 C4 C5 119.7(9) . . ?
 C3 C4 H4 120.1 . . ?
 C4 C3 H3 119.8 . . ?
 C2 C3 C4 120.4(10) . . ?
 C2 C3 H3 119.8 . . ?
 C3 C2 C1 116.8(13) . . ?
 C3 C2 C7 119.6(9) . . ?
 C7 C2 C1 123.1(13) . . ?
 C2 C7 H7 120.0 . . ?
 C6 C7 C2 119.9(9) . . ?
 C6 C7 H7 120.0 . . ?
 C5 C6 C7 120.3(10) . . ?
 C5 C6 H6 119.9 . . ?
 C7 C6 H6 119.9 . . ?
 N1 C8 H8 123.1 . . ?
 N1 C8 C9 114(3) . . ?
 C9 C8 H8 123.1 . . ?
 C8 N1 C5 123(3) . . ?
 C10 C9 C8 111(3) . . ?
 C10 C9 C11 120.5(9) . . ?
 C11 C9 C8 128(3) . . ?
 C9 C10 H10 120.1 . . ?
 C9 C10 C11 119.8(9) . 9_567 ?
 C11 C10 H10 120.1 9_567 . ?
 C9 C11 C10 119.7(9) . 9_567 ?
 C9 C11 H11 120.2 . . ?
 C10 C11 H11 120.2 9_567 . ?

_shelx_res_file
;
TITL COF-300-V_Cryo in I4(1)/a
    cof-300-v_cryo.res
    created by SHELXL-2017/1 at 07:59:11 on 06-May-2019
CELL 0.0251 20.5 20.5 9.1 90 90 90
ZERR 4 0 0 0 0 0 0
LATT 2
SYMM 0.75-Y,0.25+X,0.25+Z
SYMM 0.5-X,-Y,0.5+Z
SYMM 0.75+Y,0.75-X,0.75+Z
SFAC C N H
UNIT 164 16 112
EQIV $1 -X,1-Y,2-Z
SADI C2 C4 C2 C6 C6 C4 C3 C7 C7 C5 C5 C3 C9 C11_$1 C9 C10_$1 C10_$1 C11_$1 =
 C10 C11 C11 C9_$1 C9_$1 C10
SADI C3 C2 C4 C3 C5 C4 C6 C5 C7 C6 C7 C2 C9 C11 C9 C10 C11_$1 C10 C9_$1 =
 C11_$1 C9_$1 C10_$1 C11 C10_$1
FLAT C2 C7 C6 C5 C4 C3
FLAT C9 C10 C11_$1 C9_$1 C10_$1 C11
RIGU C11 C9 C8 C10 N1 C5 C4 C3 C2 C7 C6 C1
EADP C2 C3 C4 C5 C6 C7
EADP C11 C10 C9

L.S. 99
PLAN  2
SIZE 0.0004 0.0004 0.001
list 6
BOND $H
fmap 2 53
acta
REM <olex2.extras>
REM <HklSrc "%.\\COF-300-V-Cryo-data1.hkl">
REM </olex2.extras>

WGHT    0.200000  120.000000
FVAR       1.45470
C1    1    0.000000    0.250000    0.125000    10.25000    0.12324    0.12324 =
         0.10957    0.00000    0.00000    0.00000
C5    1    0.020559    0.396931    0.483092    11.00000    0.14000    0.13615 =
         0.09041    0.00251    0.03091   -0.03548
C4    1   -0.041621    0.365337    0.453619    11.00000    0.14000    0.13615 =
         0.09041    0.00251    0.03091   -0.03548
AFIX  43
H4    3   -0.077054    0.372567    0.515324    11.00000   -1.20000
AFIX   0
C3    1   -0.048134    0.322432    0.327349    11.00000    0.14000    0.13615 =
         0.09041    0.00251    0.03091   -0.03548
AFIX  43
H3    3   -0.088666    0.304888    0.304006    11.00000   -1.20000
AFIX   0
C2    1    0.008067    0.306820    0.237655    11.00000    0.14000    0.13615 =
         0.09041    0.00251    0.03091   -0.03548
C7    1    0.070676    0.337702    0.269087    11.00000    0.14000    0.13615 =
         0.09041    0.00251    0.03091   -0.03548
AFIX  43
H7    3    0.106801    0.328477    0.210864    11.00000   -1.20000
AFIX   0
C6    1    0.076514    0.382817    0.391280    11.00000    0.14000    0.13615 =
         0.09041    0.00251    0.03091   -0.03548
AFIX  43
H6    3    0.116346    0.402745    0.410706    11.00000   -1.20000
AFIX   0
C8    1   -0.023199    0.456609    0.700328    11.00000    0.31600    0.03589 =
         0.10527   -0.02018   -0.02052    0.03110
AFIX  43
H8    3   -0.063932    0.463017    0.657716    11.00000   -1.20000
AFIX   0
N1    2    0.026113    0.423958    0.632235    11.00000    0.28244    0.12453 =
         0.10374   -0.01809   -0.03819    0.05084
C9    1   -0.006083    0.480803    0.847500    11.00000    0.24532    0.13499 =
         0.10576   -0.02777   -0.01117    0.02864
C10   1   -0.064156    0.493579    0.933406    11.00000    0.24532    0.13499 =
         0.10576   -0.02777   -0.01117    0.02864
AFIX  43
H10   3   -0.105166    0.489622    0.890627    11.00000   -1.20000
AFIX   0
C11   1    0.058156    0.487351    0.912979    11.00000    0.24532    0.13499 =
         0.10576   -0.02777   -0.01117    0.02864
AFIX  43
H11   3    0.095307    0.479410    0.857119    11.00000   -1.20000
AFIX   0
HKLF 4




REM  COF-300-V_Cryo in I4(1)/a
REM R1 =  0.3175 for     594 Fo > 4sig(Fo)  and  0.3377 for all     700 data
REM     60 parameters refined using    219 restraints

END

WGHT      0.2000      0.0000

REM Highest difference peak  0.314,  deepest hole -0.343,  1-sigma level  0.103
Q1    1  -0.0421  0.3578  0.2445  11.00000  0.05    0.31
Q2    1   0.0000  0.2500  0.6250  10.25000  0.05    0.31
;
_shelx_res_checksum                90496
_shelx_hkl_file
;
  -2  -8  -2 2338.18   70.15
   1 -12  -1 2043.22   61.30
  -6   1  -3 1498.29   44.95
 -10  10  -4  737.87   22.14
  -1  -4  -159971.56 1799.15
   2  -8   020596.82  617.90
  -5   5  -2 2493.68   74.81
  -3   4  -150555.84 1516.68
  -9  14  -3  251.35    7.54
   3  -4   134610.63 1038.32
   9 -12   3  607.67   18.23
 -10  19  -3   42.89    1.29
   1   4   159397.76 1781.93
   4   0   2 6339.82  190.19
   7  -4   3 1887.26   56.62
  10  -8   4 1368.09   41.04
   2   8   2 3618.87  108.57
   5   4   3 1555.59   46.67
  -7  -3  -4 1389.82   41.69
   5 -12   1 1207.54   36.23
   6  -8   2 1695.46   50.86
  -4   9  -1 6765.24  202.96
  -3  13   0  917.48   27.52
   8   0   4  314.50    9.43
  11  -4   5  501.74   15.05
  -4   0  -2 9185.15  275.55
  -8  18  -2   43.69    1.31
  14   1   7  180.33    5.41
  -5  -4  -3  711.05   21.33
  10 -15   3  294.85    8.85
  11 -11   4  215.89    6.48
  13  -3   6  112.31    3.37
  -7   4  -3 1224.59   36.74
 -14   1  -7  156.32    4.69
  -8   0  -4  681.22   20.44
  -6   8  -2 1283.36   38.50
   7   5   4  494.22   14.83
 -10   8  -4 1256.59   37.70
  12   2   6  230.94    6.93
  -6  -8  -4   41.38    1.24
   1  13   2  767.85   23.04
   4   9   3  379.89   11.40
  -3  22   1  158.57    4.76
   6   1   3 3258.07   97.74
   1 -19  -2   63.37    1.90
 -11   4  -5  258.90    7.77
  10  -6   4  715.10   21.45
  11  -2   5  158.94    4.77
   9   6   5 2557.62   76.73
  -3 -12  -3  159.45    4.78
  -9  12  -3  170.21    5.11
 -13  12  -5  241.73    7.25
   4  -7   111795.19  353.86
  -5  12  -1  376.20   11.29
   8   2   4  850.35   25.51
 -14  -1  -7  103.83    3.11
 -13   3  -6  159.21    4.78
  -7  -5  -4  676.95   20.31
   2 -15  -1  144.09    4.32
 -12  16  -4   53.77    1.61
   9 -10   3  155.13    4.65
  11  -9   4 1161.25   34.84
  12  -5   5   86.28    2.59
   6  10   4  680.20   20.41
  -6  -1  -3 2926.25   87.79
   7 -18   1  101.62    3.05
   5  -3   2  753.77   22.61
   7  -2   3 9437.75  283.13
   3   5   2 1356.32   40.69
  -8  -9  -5  226.31    6.79
 -11  11  -4  346.38   10.39
  -8  16  -2  105.46    3.16
  -8   7  -3  245.21    7.36
  -5   3  -2  562.82   16.88
  -9  -6  -5 1471.23   44.14
  12 -12   4  396.70   11.90
  13  -8   5  138.65    4.16
 -12  -2  -6  350.21   10.51
  -4  -9  -3  184.70    5.54
 -11   2  -5  157.03    4.71
  15  -7   6  244.49    7.33
  -5 -13  -4  151.70    4.55
 -10   6  -4  368.71   11.06
  -7   2  -3 1988.11   59.64
   8  -5   3  847.12   25.41
   9  -1   4  290.11    8.70
  -7  11  -2  282.25    8.47
   6  -6   2 1645.39   49.36
  -4  16   0  317.16    9.51
   7   7   4  418.14   12.54
  -8  -2  -4  831.28   24.94
  -4   7  -1  854.63   25.64
  -3  -5  -2  407.79   12.23
  -3 -10  -3  790.42   23.71
  -1 -11  -2 9255.98  277.68
   3 -13   0   24.18     .73
  -6   3  -3 3383.05  101.49
  -4   2  -2 2209.65   66.29
  -2   1  -122929.31  687.88
  -3   6  -1 3022.36   90.67
   4  -2   2 1549.20   46.48
  10 -12   4  492.01   14.76
   7   1   4  123.06    3.69
  -7  -8  -5  321.82    9.65
   7  10   5  212.00    6.36
   2  -1   121304.19  639.13
   5   2   3  274.66    8.24
  -8   4  -4  160.85    4.83
  -5   7  -2  665.61   19.97
   6   6   4  276.43    8.29
   4   7   3  815.04   24.45
  12  -4   6   46.12    1.38
   3  12   3  214.74    6.44
   5  11   4  129.28    3.88
   4  16   4  152.13    4.56
 -11  10  -5  279.42    8.38
   3   3   2 1115.88   33.48
   3 -20  -1  118.64    3.56
   4  -9   1 6909.35  207.28
 -11   1  -6  256.93    7.71
  -5  -2  -3  220.24    6.61
   7  -6   3 1545.44   46.36
   8  -2   4  202.82    6.08
  -4 -14  -4  137.44    4.12
 -10  -4  -6  175.40    5.26
  -2 -15  -3  388.80   11.66
   8   7   5 1519.71   45.59
  -4  -7  -3  552.10   16.56
 -10  12  -4  336.22   10.09
   5  -5   2 5401.58  162.05
  10 -10   4  619.40   18.58
  11  -6   5  440.01   13.20
  12  -2   6  311.07    9.33
  -6  -6  -4   48.83    1.46
   7   3   4 1208.67   36.26
 -11   8  -5  134.47    4.03
  -9  16  -3  254.62    7.64
  12   7   7  164.19    4.93
   6  -1   3  662.51   19.88
  -7   6  -3  722.56   21.68
  10 -17   3  174.90    5.25
  -7 -10  -5  373.74   11.21
  11   3   6  504.74   15.14
  -8   2  -4  250.39    7.51
  -6  10  -2  791.46   23.74
 -11  -1  -6   66.39    1.99
   4 -16   0  828.45   24.85
  -5 -11  -4  208.40    6.25
   7 -20   1  139.55    4.19
   6   8   4  136.59    4.10
  -8 -14  -6   85.52    2.57
  -3 -19  -4  170.36    5.11
 -11   6  -5  266.28    7.99
  -8  -7  -5 1420.18   42.61
 -12   2  -6  314.33    9.43
   8 -16   2  244.45    7.33
 -11  15  -4   91.50    2.75
  13 -12   5   64.25    1.93
  -5  -7  -4 1208.73   36.26
   5 -16   1  162.48    4.87
 -10  11  -5  116.43    3.49
  -4   4  -216901.26  507.04
   4  -4   216849.19  505.48
   2 -17  -1  530.16   15.90
  -2  -6  -2  439.95   13.20
  -6  -2  -4  312.20    9.37
   8  10   6  299.51    8.99
 -10   2  -6  256.96    7.71
  -7   3  -4  194.42    5.83
  -8  17  -3  159.64    4.79
  -8  -8  -6  133.86    4.02
  -9  -3  -6  206.80    6.20
  -5   9  -2  703.06   21.09
   4   5   3  288.93    8.67
   3  10   3 1451.95   43.56
  -8   8  -4  491.38   14.74
   5   0   3  246.88    7.41
  -4 -12  -4  181.98    5.46
 -11   7  -6  132.70    3.98
  -9  13  -4  347.12   10.41
  -7  -6  -5 2099.85   63.00
   4 -11   1  536.11   16.08
  -9   4  -5  278.57    8.36
  10  -7   5  492.39   14.77
   6   4   4 1828.19   54.85
 -11  -2  -7  188.12    5.64
 -12   3  -7  219.44    6.58
   4 -18   0  283.40    8.50
 -10  -7  -7  115.65    3.47
 -10   9  -5  116.17    3.48
   6 -12   2  639.29   19.18
  -6 -11  -5 1205.68   36.17
  -5   0  -3  779.76   23.39
   3  -6   110217.45  306.52
   9  -2   5  159.19    4.78
  11  -3   6  428.93   12.87
  10   2   6 1340.42   40.21
  -4  -5  -3  445.86   13.38
  -7  10  -3  175.97    5.28
   8   3   5   76.90    2.31
  13  -4   7   66.37    1.99
   9   7   6   58.32    1.75
  -2  10   0  769.86   23.10
   7   8   5  156.45    4.69
  12   1   7  338.72   10.16
  13   5   8  126.40    3.79
  -7  19  -2  185.88    5.58
  -8 -10  -6  341.77   10.25
  -6  -4  -4  428.08   12.84
   5  -7   2  671.22   20.14
  -9  11  -4  315.96    9.48
 -11  -4  -7  127.67    3.83
 -12   1  -7   27.50     .83
  11 -10   5  192.33    5.77
 -10   7  -5  321.72    9.65
   6  -3   3 3226.21   96.79
   8  -4   4  306.51    9.20
  11  -1   6  321.63    9.65
 -10  -2  -6  858.21   25.75
  -8  -3  -5  157.93    4.74
 -11   3  -6  414.04   12.42
  -4  11  -1  408.95   12.27
  10   4   6   84.19    2.53
  -6  12  -2  445.17   13.35
 -12  -1  -7  375.23   11.26
  -3  15   0  111.25    3.34
  -9  -7  -6  308.24    9.25
  -7   8  -3  167.75    5.03
  -5   4  -3  697.38   20.92
   6 -16   2  280.36    8.41
  -8  14  -4  186.37    5.59
  -2   3  -128073.27  842.20
   7 -14   3  140.54    4.22
   2  -3   132851.06  985.53
   4  -6   212406.12  372.18
  -7  16  -3  678.77   20.36
   1  11   211358.88  340.77
   3   8   3 1300.80   39.02
   5   5   4  688.56   20.66
  12   0   8   97.59    2.93
  -7  -9  -6  868.04   26.04
  -4   6  -2 7753.11  232.59
   5 -11   2  265.94    7.98
  -4  15  -1  402.78   12.08
  -2  12   0  104.48    3.13
  -6  -7  -5 1540.65   46.22
 -10   8  -6  214.07    6.42
  -7   7  -4  401.95   12.06
   8  -3   5  575.39   17.26
  -5 -12  -5  252.27    7.57
  -9  10  -5  982.26   29.47
   9  -8   5  212.51    6.38
   8   6   6 1362.98   40.89
  10   3   7  162.24    4.87
  -4 -10  -4  214.84    6.45
  -3  -8  -3 1569.31   47.08
  11  -2   7 1034.97   31.05
  -4 -17  -5   81.41    2.44
  -9  -6  -7  231.54    6.95
 -10  -1  -7 1336.13   40.08
  -8  -4  -6  562.65   16.88
  -6   9  -3  362.99   10.89
   3  -8   1 3116.83   93.50
   4   3   3 1365.14   40.95
   6   9   5  595.42   17.86
  -8  12  -4 2668.33   80.05
   8 -10   4 1427.93   42.84
  -3 -15  -4   62.72    1.88
   9 -15   4  514.01   15.42
   9   1   6 1004.69   30.14
 -12   2  -8    7.10     .21
  -9   1  -6  159.24    4.78
  -6  18  -2  104.11    3.12
   7  -5   4  624.15   18.72
  12   2   8   50.63    1.52
  -2 -20  -4  161.51    4.85
  -5  -5  -4  313.37    9.40
  10  -4   6  161.70    4.85
   2  15   3  381.70   11.45
   4  12   4  371.60   11.15
   0  18   2  123.42    3.70
  -2 -13  -3  325.47    9.76
  -8   3  -5  458.10   13.74
   0   9   1 1687.30   50.62
   7   4   5  375.12   11.25
  10   5   7  172.36    5.17
 -10   6  -6    3.79     .11
   4 -20   0   47.04    1.41
  -4  -3  -3 2281.20   68.44
   8 -17   3  139.49    4.18
  -3   8  -1 1156.66   34.70
   6  -7   3 2181.42   65.44
   5  -2   3  293.09    8.79
   2   6   2  371.83   11.16
 -10 -10  -8   44.36    1.33
  -7  14  -3  397.29   11.92
   5   7   4  776.22   23.29
 -11  -5  -8  145.31    4.36
  -7   5  -4  714.95   21.45
  -5  11  -2  280.65    8.42
   9  -6   5  754.18   22.63
  12  -5   7   79.73    2.39
   8   8   6  275.22    8.26
 -12   0  -8   91.57    2.75
 -10  -3  -7  113.22    3.40
  -8  -6  -6 1156.05   34.68
 -11   2  -7  760.56   22.82
  -9   8  -5  173.51    5.21
  -7 -11  -6  128.24    3.85
 -13   5  -8   46.79    1.40
   7 -19   2   58.11    1.74
  -8  10  -4 1145.42   34.36
  10  -2   6  379.47   11.38
   9   3   6  305.14    9.15
   6  11   5  998.36   29.95
  -9  -1  -6  852.42   25.57
   9 -13   4  207.21    6.22
   6   2   4    8.99     .27
  -6  -9  -5  315.84    9.48
  -6   7  -3 1470.04   44.10
   8  -8   4  500.71   15.02
  11  -7   6  170.36    5.11
  10   7   7  188.55    5.66
   3 -15   0  370.01   11.10
   2 -10   0  536.24   16.09
   5  -9   2  582.89   17.49
  -7  -4  -5  315.35    9.46
 -10   4  -6   28.29     .85
   7  -3   4  163.89    4.92
   7   6   5 1982.16   59.46
  11   2   7   79.66    2.39
  -5 -14  -5  163.23    4.90
  12  -3   7  182.46    5.47
  -9   6  -5  256.69    7.70
 -10  -5  -7  178.42    5.35
   9  -4   5  298.09    8.94
   7 -10   3   52.69    1.58
  -3  -6  -3 3306.15   99.18
  -4   1  -3 1108.87   33.27
  -1  -2  -125314.29  759.43
   3 -10   1 3162.78   94.88
   4  -8   211156.62  334.70
  -2   5  -127326.42  819.79
   2   4   2 2285.16   68.55
  -1  16   1  257.71    7.73
   8   0   6 1781.37   53.44
   7   7   6 4003.02  120.09
   8   9   7  100.02    3.00
  -3 -13  -4  399.42   11.98
  -6  -3  -5  807.55   24.23
  -8   2  -6  485.03   14.55
  -5  -1  -4  456.83   13.70
   1   2   123466.34  703.99
   3   6   3 4190.20  125.71
   2  13   3 1151.73   34.55
  -7  -5  -6 1762.02   52.86
  -9   0  -7  335.92   10.08
  -2 -11  -3  449.44   13.48
   2 -12   0   96.67    2.90
   5  -6   3  947.05   28.41
   6  -4   4  259.86    7.80
   6   5   5  171.86    5.16
  10  -3   7  324.04    9.72
  10   6   8  476.00   14.28
  -4 -15  -5  280.67    8.42
  -2  -4  -2 2259.66   67.79
 -10  -2  -8  214.92    6.45
  -9   7  -6 1220.91   36.63
   8  -7   5  406.23   12.19
   5   3   4 1994.68   59.84
  -7  11  -4  217.19    6.52
  -4   8  -211399.17  341.97
   8   2   6 3389.25  101.68
  -4  -8  -4  209.43    6.28
 -10   5  -7  477.71   14.33
   4 -15   1  319.64    9.59
  -6  13  -3  226.09    6.78
  10 -10   6  163.63    4.91
 -11   3  -8   48.80    1.46
  -8   0  -6 2006.72   60.20
   7 -16   3  428.61   12.86
  -5  15  -2   48.14    1.44
  -6   4  -4  400.74   12.02
   8 -14   4  544.27   16.33
   4   1   3  566.51   17.00
  10  -1   7 1029.94   30.90
  -5   6  -3  232.07    6.96
  -3  10  -1 2584.96   77.55
   7   9   6  811.30   24.34
   6 -18   2  124.38    3.73
   4  10   4  168.87    5.07
  -7  -7  -6 2030.63   60.92
  -5  -3  -4 1603.79   48.11
  -6  -5  -5  437.31   13.12
   6   7   5 1157.39   34.72
   9   6   7  182.21    5.47
 -10   3  -7  389.73   11.69
  -9   5  -6   92.09    2.76
  -8   7  -5  400.89   12.03
   6  -2   4  232.79    6.98
   3  -1   2  634.62   19.04
  10  -8   6  334.31   10.03
  -4  -1  -3  421.08   12.63
  10   1   7 1760.22   52.81
  -8  -2  -6 2049.00   61.47
   9 -10   5  586.38   17.59
   8   4   6  427.30   12.82
 -10  -6  -8  347.16   10.41
   8 -12   4 2674.36   80.23
   5  -4   3  347.06   10.41
   7  -7   4  288.22    8.65
  -3   1  -2 1225.24   36.76
 -10   1  -7 1340.39   40.21
  -6   2  -4  391.02   11.73
   6  -9   3  338.96   10.17
  -9  12  -5   31.11     .93
  -5  13  -2  136.90    4.11
  -9   3  -6  139.58    4.19
  -6  -6  -6 2502.06   75.06
  -4  -4  -4 6648.87  199.47
  -1  -9  -2 1364.77   40.94
  -7  10  -5 3552.28  106.57
   7 -15   4  285.63    8.57
   5 -10   3  296.14    8.88
   4  -3   3 2592.96   77.79
   3   4   3 4623.75  138.71
   8  -6   6  777.60   23.33
   9  -4   7  841.78   25.25
   4  15   5  239.08    7.17
  -3 -11  -4  195.00    5.85
  -7   1  -6  231.11    6.93
   3 -12   1  549.27   16.48
  -8   8  -6  272.30    8.17
  -6  10  -4  302.33    9.07
  -4  12  -2  769.38   23.08
   8 -13   5  378.67   11.36
 -10   6  -8  123.66    3.71
  -6   1  -5 4528.49  135.85
  -3  -4  -3 3077.79   92.33
  -4   3  -3  869.49   26.08
  -3   5  -2 4985.01  149.55
   6  -8   4  170.01    5.10
  -7   8  -5 2126.26   63.79
   7  -6   5 2035.41   61.06
   1 -14  -1  280.31    8.41
  -5 -13  -6  123.14    3.69
  -8  -1  -7   29.04     .87
   5  -1   4  536.99   16.11
   4   6   4  169.02    5.07
   7   3   6 2137.07   64.11
  -7  -8  -7   17.18     .52
   6   1   5  689.33   20.68
   9  -2   7  668.00   20.04
   6  10   6  107.38    3.22
   4 -10   2  905.26   27.16
   2  -5   134183.94 1025.52
  -7  17  -4  149.97    4.50
   8  -4   6  198.27    5.95
  -4 -13  -5  451.51   13.55
  -8   6  -6 1030.96   30.93
  -5  10  -3  221.97    6.66
   9   7   8  144.56    4.34
  -9  -3  -8   95.70    2.87
  -6  -8  -6 1479.98   44.40
 -10   4  -8   40.46    1.21
   5  -8   3 1916.38   57.49
   8 -11   5  236.87    7.11
  -9   4  -7  852.58   25.58
  -5   1  -4  393.89   11.82
  -6   8  -4  312.06    9.36
  11  -5   8  225.01    6.75
  -2 -18  -4  141.29    4.24
  -4  -6  -4  269.35    8.08
  -6  -1  -5 1446.38   43.39
  -7   6  -5 1955.21   58.66
   4 -17   1  162.83    4.88
   4  17   5   57.32    1.72
  -7  15  -4  298.07    8.94
   8  -2   6  404.14   12.12
   7   5   6 2426.86   72.81
  10   2   8  178.53    5.36
  -7 -10  -7   49.27    1.48
 -10   2  -8   76.71    2.30
  -8  13  -5  195.70    5.87
   4  -1   3 4733.79  142.01
   6   3   5  617.95   18.54
   9   0   7  851.46   25.54
  -7  -3  -6 2170.55   65.12
   3  -3   2  124.88    3.75
  -8   4  -6  269.79    8.09
  -9  11  -6  104.16    3.12
  -3  12  -1  493.82   14.81
  -5  -8  -5  263.74    7.91
  -9   2  -7  468.20   14.05
   5 -15   2  119.83    3.59
  -5   8  -3 1277.11   38.31
   5   1   4  294.52    8.84
   4   8   4  356.66   10.70
   5  10   5  359.78   10.79
  -4  10  -2 1081.45   32.44
  -1   7   0  913.07   27.39
  -3   3  -2  621.07   18.63
   6 -13   3   78.70    2.36
  10  -5   7  326.51    9.80
  11  -3   8  179.90    5.40
  -8  -5  -7  118.65    3.56
   9  -7   6  997.05   29.91
  -6 -10  -6  133.97    4.02
   9   2   7  141.23    4.24
  -9  -7  -8  107.69    3.23
  -6   6  -4  392.23   11.77
  -2  14   0  535.15   16.05
   5 -14   3  251.41    7.54
  -2  18   0   78.85    2.37
   8  -5   7  540.02   16.20
  -6   7  -5 2077.22   62.32
   4 -14   2  534.49   16.03
   3  -7   2  117.20    3.52
   4   2   4  824.87   24.75
  -7   7  -6 4299.64  128.99
   1   9   2 1081.32   32.44
   4  11   5  352.94   10.59
   7   4   7  339.23   10.18
  -5   7  -4  413.35   12.40
   6   4   6  661.47   19.84
  -3 -16  -5  154.66    4.64
  -4   7  -3  408.71   12.26
  -5  16  -3  689.91   20.70
   8  -3   7  414.82   12.44
  -4  -9  -5  325.22    9.76
  -6  -2  -6 1629.02   48.87
  -9   7  -8  122.12    3.66
  -8   7  -7  274.18    8.23
  -7  16  -5   43.77    1.31
  -6  16  -4   81.97    2.46
  -4  16  -2  411.17   12.34
   3   2   3  824.78   24.74
  -7  -2  -7  911.32   27.34
   2  -7   1 2315.93   69.48
   6 -12   4  715.18   21.46
   5  -5   4  283.69    8.51
   5  13   6    5.24     .16
  -9  -2  -9  135.96    4.08
  -8  -2  -8  193.74    5.81
   5   4   5 1147.67   34.43
   7   6   7  778.63   23.36
  -2  -9  -3  667.44   20.02
  -8   5  -7  742.59   22.28
  -4  -2  -4  558.74   16.76
  -7  14  -5  334.64   10.04
  -3   7  -2  321.93    9.66
  -2   7  -1 1918.32   57.55
   7  -3   6  232.69    6.98
   2  11   3  462.61   13.88
  -7   5  -6  261.60    7.85
   5 -12   3  129.85    3.90
   4  -5   3 1634.16   49.02
   7 -10   5 3612.92  108.39
   6   6   6 1468.56   44.06
   4  13   5  340.50   10.22
   2 -14   0  336.05   10.08
   6  -3   5  311.58    9.35
   4   4   4 6431.36  192.94
  -5  14  -3  512.12   15.36
  -7  -4  -7  563.29   16.90
  -6  -4  -6  698.69   20.96
  -8   3  -7  418.88   12.57
  -5   5  -4  324.07    9.72
  -4   5  -3 1282.46   38.47
  -2  16   0  176.92    5.31
  10  -6   8  147.34    4.42
  -5  -4  -5  717.33   21.52
   2   2   2  999.06   29.97
  -4 -11  -5  123.15    3.69
   4 -12   2  605.85   18.18
   8  -8   6  312.46    9.37
   7  -1   6  243.05    7.29
  -7   3  -6  272.37    8.17
  -2  -2  -2 1196.56   35.90
  -6  12  -4  808.25   24.25
   3  -5   2 2891.86   86.76
   6 -10   4   94.13    2.82
  -4  14  -2  401.09   12.03
   8   1   7  197.87    5.94
   7  -8   5 1245.75   37.37
   6  -1   5 4211.36  126.34
  -7  -6  -7  744.65   22.34
  -6   3  -5  274.07    8.22
   3  13   4  265.66    7.97
   6   8   6  568.50   17.05
   9   3   8   59.13    1.77
  -8  10  -6   11.87     .36
   6 -17   3  122.46    3.67
  -6 -13  -7   69.34    2.08
  -3 -18  -5    2.53     .08
  -8   1  -7  111.33    3.34
  -5  12  -3  167.72    5.03
  -5   3  -4  173.29    5.20
  -1  -7  -215817.56  474.53
   4 -18   2  295.59    8.87
  -5  15  -4   78.80    2.36
  -4  13  -3  143.94    4.32
   6  -4   6  776.05   23.28
   7  -4   7 1480.94   44.43
   6   5   7   45.47    1.36
  -5  -3  -6  555.96   16.68
  -6   6  -6 1094.95   32.85
  -4   4  -4 6825.43  204.76
  -2   2  -2  633.40   19.00
   2   7   316215.48  486.46
   3   7   4  192.03    5.76
   1 -16  -1  433.99   13.02
  -2  -7  -314475.41  434.26
   6 -11   5 5060.08  151.80
  -4 -12  -6   52.39    1.57
  -7  -1  -8  308.63    9.26
   5 -18   3   10.48     .31
  -3  11  -2  732.63   21.98
  -5   4  -5   53.48    1.60
  -5  13  -4  287.20    8.62
   4  -2   4 8426.09  252.78
  -2  20   0  187.78    5.63
   4   7   5   49.87    1.50
   5   7   6  384.21   11.53
  -4  -5  -5  343.62   10.31
  -7   6  -7  130.01    3.90
  -6  -3  -7  294.22    8.83
   3  -9   2 4773.31  143.20
   5  -2   5  168.66    5.06
   6  -2   6 3529.60  105.89
   8  -2   8  213.17    6.40
   6   7   7  187.15    5.61
  -2 -14  -4  218.54    6.56
  -4   2  -4 3338.04  100.14
   7  -2   7 1441.29   43.24
   2 -16   0  671.34   20.14
  -4  11  -3  270.36    8.11
   4  -9   3 3190.77   95.72
  -3 -14  -5   56.21    1.69
  -5  -5  -6  223.50    6.70
  -6   4  -6  796.17   23.88
   3 -16   1  340.11   10.20
   6  -9   5 2977.00   89.31
  -7   4  -7 1345.53   40.37
   7  -9   6   75.19    2.26
   4 -16   2  388.97   11.67
   5 -16   3  562.87   16.89
   2   0   210542.99  316.29
   5  -9   4  178.22    5.35
  -6  11  -5 4431.32  132.94
   6 -16   4  111.25    3.34
   1   0   127985.57  839.57
   4   0   4 5731.61  171.95
   2   9   3  937.34   28.12
   4   9   5  368.49   11.05
  -4 -14  -6   74.71    2.24
  -6   2  -6 3653.14  109.59
  -2   0  -211973.60  359.21
  -1   0  -130345.67  910.37
  -3   9  -2 2881.07   86.43
   6   0   6  518.79   15.56
  -3  -7  -4  106.87    3.21
  -4   9  -3 3818.47  114.55
   7  -7   6 3462.63  103.88
   5   0   5   99.73    2.99
   9  -7   8   68.67    2.06
   9   2   9   28.77     .86
  -7   2  -7 1699.90   51.00
  -4  20  -2   87.07    2.61
   8  -7   7  123.09    3.69
  -5  -7  -6   84.05    2.52
   7   2   7 1282.78   38.48
   8   2   8  228.07    6.84
  -8   2  -8  216.11    6.48
   6  -7   5 1895.84   56.88
  -8  11  -7   40.97    1.23
  -6   9  -5 3400.29  102.01
  -2   9  -1  377.03   11.31
   6   2   6 1334.61   40.04
  -4   0  -4 5786.54  173.60
   5  -7   4  525.26   15.76
  -3   0  -3  247.33    7.42
   7 -14   5  313.28    9.40
  -5   0  -5  767.88   23.04
   4  -7   3  523.13   15.69
  -6   0  -6  255.30    7.66
   7  -5   6  368.77   11.06
   2  20   4  101.03    3.03
  -3  -1  -4 7372.58  221.18
  -5  14  -5  245.55    7.37
  -4  10  -4 1102.84   33.09
  -3   8  -3 2864.69   85.94
  -1   2  -1 3906.73  117.20
   5 -17   4  185.77    5.57
   1  -2   1 4163.45  124.90
   1   7   215664.49  469.93
   3   3   4 2864.30   85.93
   6  -3   7  939.04   28.17
   5   8   7  468.79   14.06
  -6   7  -7  720.57   21.62
  -2   4  -213781.23  413.44
   3  -6   3 2264.11   67.92
   4  -8   4 1032.63   30.98
  -3  17  -2  158.44    4.75
  -5  -4  -7  514.78   15.44
   2  14   4  145.26    4.36
   4 -15   3  142.29    4.27
   2  -4   217665.43  529.96
   4   1   5  270.15    8.10
  -5   3  -6  957.94   28.74
  -5  12  -5  537.20   16.12
  -3   6  -3 3898.66  116.96
   3 -13   2  558.76   16.76
   2   5   3  628.04   18.84
   1  18   3   53.22    1.60
  -6  -2  -8  270.41    8.11
  -7   9  -8   13.06     .39
   6 -10   6   58.38    1.75
  -4  19  -3  147.98    4.44
   5  10   7  370.02   11.10
  -4  -8  -6   64.36    1.93
  -6   5  -7  308.37    9.25
   6 -17   5   94.95    2.85
  -1  11   0  281.34    8.44
  -4   8  -4  853.49   25.60
  -5  -6  -7  221.97    6.66
  -3  -3  -4 2944.91   88.35
   7 -10   7  242.39    7.27
   6  10   8  183.99    5.52
  -7   7  -8   37.80    1.13
   2 -11   1  774.45   23.23
  -3  15  -2  296.40    8.89
   6  -8   6 1274.94   38.25
   4   3   5 1304.00   39.12
   5   1   6  193.76    5.81
  -6   3  -7  776.29   23.29
   4  -6   4 1813.54   54.41
   7  -1   8  409.86   12.30
  -4  17  -3  280.83    8.42
  -5   1  -6   69.27    2.08
  -4  -1  -5  259.57    7.79
  -7   5  -8   26.50     .79
   3  -4   3 1777.45   53.32
   5  -6   5  196.68    5.90
   7   1   8  590.60   17.72
  -5  -8  -7  412.69   12.38
   3   5   4  287.23    8.62
  -4   6  -4 1643.03   49.29
   4  -4   4 7250.59  217.52
   6  -6   6 1614.81   48.44
   2 -18   0  231.80    6.95
  -3   4  -3 1310.16   39.30
   3 -11   2 1010.41   30.31
  -5  17  -4  187.77    5.63
  -4  -3  -5 1314.51   39.44
   6   3   7  455.34   13.66
  -5  -1  -6  504.93   15.15
   0 -16  -2  194.34    5.83
   5 -13   4  530.99   15.93
   7  -6   7  119.91    3.60
  -3  13  -2  612.06   18.36
  -7  -6  -9   62.33    1.87
   2  -2   2  536.19   16.09
  -6  -8  -8   47.52    1.43
  -5 -10  -7  292.92    8.79
  -7   1  -8  285.10    8.55
   8  -6   8   75.87    2.28
  -7  10  -7  161.93    4.86
  -6   8  -6  896.51   26.90
  -3  -5  -4  432.66   12.98
  -5   6  -5  335.82   10.07
   4 -11   3  299.88    9.00
  -6  17  -5   93.33    2.80
  -3 -11  -6  488.10   14.64
  -4  -7  -7 1176.59   35.30
  -4   2  -6 2204.29   66.13
   0  -9  -1 3827.01  114.81
  -1  -5  -227595.09  827.85
   2 -15   1  359.89   10.80
  -4  11  -5  903.61   27.11
   2  -8   2 4785.50  143.56
   1  -4   199999.00 2999.97
  -1   4  -189798.25 2693.95
   4 -14   4  606.64   18.20
   4  -7   5  647.89   19.44
   3  -3   4 2403.65   72.11
   5  -2   7  684.32   20.53
   3   6   5  666.79   20.00
   4   2   6  427.29   12.82
   2  10   4  630.01   18.90
  -5   6  -7  157.37    4.72
   4 -21   3   96.75    2.90
   2   1   3 2883.82   86.51
  -3   5  -4  740.00   22.20
  -2   8  -211854.80  355.64
  -5  -3  -8  219.58    6.59
  -1 -12  -3  437.28   13.12
  -4   0  -6  551.22   16.54
   1   5   229014.95  870.45
   6  -4   8  313.05    9.39
  -3  -4  -5  273.28    8.20
  -2  -1  -3 3487.80  104.63
  -4   9  -5  245.07    7.35
  -5  15  -6   79.08    2.37
   3 -10   3 1358.88   40.77
   4  -5   5  671.18   20.14
  -2  -8  -4  201.61    6.05
  -5   4  -7 1291.01   38.73
  -6  10  -8  346.85   10.41
  -3   3  -4 1109.31   33.28
   5  -9   6   64.83    1.94
   4   4   6  692.19   20.77
  -3  12  -3  347.79   10.43
  -1  13   0  204.75    6.14
   7  -6   9   87.41    2.62
   6  -2   8 1611.37   48.34
  -4  18  -4  178.51    5.36
   6 -11   7  139.10    4.17
   3   8   5  319.01    9.57
  -4  -9  -7  530.90   15.93
  -6   8  -8  356.93   10.71
  -4   7  -5  689.87   20.70
   3 -17   2  152.41    4.57
   4 -12   4  621.34   18.64
  -6  -1  -9  104.20    3.13
   3  -1   415257.68  457.73
  -5  -5  -8  109.10    3.27
  -3  -6  -5  402.11   12.06
   2  -6   2 2777.61   83.33
   5  -7   6 2032.40   60.97
   5   2   7  145.98    4.38
   4   6   6  605.73   18.17
  -5   2  -7  460.75   13.82
   5 -14   5  202.25    6.07
  -4  -2  -6  776.12   23.28
   4  -3   5  113.15    3.39
   6  -9   7  290.05    8.70
   6   0   8  659.49   19.78
  -3 -13  -6   86.21    2.59
  -2 -10  -4  485.99   14.58
   2 -13   1  387.43   11.62
   3  -8   3 2593.53   77.81
   2   3   3  350.45   10.51
  -3   1  -416859.14  505.77
  -5  11  -6  107.69    3.23
   5   4   7  614.09   18.42
   7  -2   9   41.19    1.24
  -4   5  -5  753.76   22.61
   1 -11   0  189.59    5.69
   6  -7   7  672.83   20.18
  -5   9  -6  396.54   11.90
   3   1   4 7107.41  213.22
   5  -5   6  220.44    6.61
   6   2   8  257.24    7.72
  -4  -4  -6  493.58   14.81
  -6   4  -8  331.38    9.94
  -3  10  -3 1307.12   39.21
  -2   6  -2 1770.24   53.11
  -4  14  -4  288.09    8.64
  -2 -17  -5   57.77    1.73
   4 -10   4 1013.17   30.40
   5 -12   5  506.34   15.19
   4   8   6  352.63   10.58
   1 -18  -1   90.00    2.70
   2 -20   0  206.64    6.20
  -5   7  -6 2398.66   71.96
   3 -15   2  298.63    8.96
   4 -17   3   86.91    2.61
   6 -14   6  115.63    3.47
  -3  21  -2   27.35     .82
  -6   2  -8 1827.53   54.83
  -3  -8  -5  501.99   15.06
  -4   3  -5   72.83    2.18
   5   6   7  275.91    8.28
   5  -3   6  795.53   23.87
  -5  -2  -7   45.96    1.38
  -4  12  -4  423.81   12.71
   6  -5   7  270.40    8.11
  -6   0  -8  247.89    7.44
  -4  -6  -6  757.72   22.73
  -6   9  -7   57.25    1.72
  -5   5  -6  260.13    7.80
  -5 -11  -8   61.03    1.83
  -3 -10  -7  306.47    9.19
  -3  -3  -6  764.95   22.95
  -1 -10  -3 2701.94   81.06
  -4   5  -7 1098.27   32.95
  -3   6  -5  343.84   10.32
  -1  -1  -234080.46 1022.41
   2 -12   2  259.92    7.80
  -2   7  -3 2988.68   89.66
   1   1   232602.17  978.06
   4  -8   6  226.67    6.80
   2   4   4 4986.85  149.61
   1  12   3  424.93   12.75
   3   7   6  187.32    5.62
  -4   3  -7  764.44   22.93
  -2  -2  -422130.65  663.92
   1  -6   117973.20  539.20
  -3  15  -4  127.26    3.82
   3  -2   5  322.55    9.68
  -2  -4  -4 5392.37  161.77
  -1   6  -114495.34  434.86
  -3 -12  -7  103.70    3.11
  -4  -6  -8   74.98    2.25
  -5   2  -9   86.08    2.58
  -2 -11  -5  207.38    6.22
  -3  -5  -6  777.45   23.32
  -3   4  -5 1284.00   38.52
  -4  12  -6   74.32    2.23
   3   0   5 3581.19  107.44
   5  -3   8  394.06   11.82
  -5  11  -8  131.06    3.93
   3 -16   3  123.89    3.72
  -3  13  -4  360.87   10.83
  -2  16  -2   61.13    1.83
   4  -6   6  691.79   20.75
   2  17   5   18.93     .57
   2   6   4  287.15    8.61
   3  11   6  798.41   23.95
   4   5   7 1367.03   41.01
  -4  10  -6   49.25    1.48
  -3  11  -4  229.86    6.90
   5 -10   7  129.55    3.89
  -3   2  -5  243.15    7.29
   2 -10   2  462.88   13.89
   1   3   2  822.11   24.66
  -4   8  -6  361.34   10.84
   4  -4   6  671.48   20.14
  -5  -2  -9  830.24   24.91
   2 -17   1   87.41    2.62
   3   2   5  291.75    8.75
   4   7   7 1731.87   51.96
  -1  -3  -2  985.59   29.57
   4 -11   5  880.01   26.40
  -3  -7  -6  278.09    8.34
  -4  17  -5   97.62    2.93
  -2  12  -2  316.25    9.49
   2   8   4  257.87    7.74
   5   1   8  222.39    6.67
  -3   0  -5 2368.86   71.07
  -5  14  -7   35.61    1.07
  -2   3  -3 1169.77   35.09
   4 -18   4   40.90    1.23
   5 -15   6  210.20    6.31
   4  -2   6 1132.66   33.98
  -2  -6  -4  339.36   10.18
  -4  -3  -7  175.31    5.26
  -4   6  -6  838.81   25.16
  -3   9  -4  226.47    6.79
   5  -6   7  143.46    4.30
   6 -10   8  311.51    9.35
   5   3   8  198.16    5.94
   2  -1   3  617.32   18.52
  -5   3  -8  368.80   11.06
   3  -5   4  817.34   24.52
   3   4   5  100.39    3.01
   4   9   7  435.50   13.07
  -4   4  -6  474.17   14.23
   4  -9   5  222.55    6.68
   0  11   1  862.42   25.87
   1  16   3   97.52    2.93
  -4  -5  -7 2225.75   66.77
  -3  -2  -5  504.18   15.13
  -5  10  -7  135.13    4.05
  -2   1  -3 2817.46   84.52
   4 -16   4   99.41    2.98
   6  -8   8   77.55    2.33
   5  -4   7 1427.22   42.82
   4   0   6  780.14   23.40
  -3   7  -4   32.57     .98
  -2  10  -2  585.43   17.56
   3 -12   3  284.01    8.52
  -5   8  -7  127.94    3.84
  -5  -1  -8  266.89    8.01
  -2 -15  -5  150.02    4.50
  -3  16  -3    6.36     .19
  -2 -10  -6  557.68   16.73
  -3   2  -7  477.20   14.32
  -1  -6  -3 4923.57  147.71
  -3  11  -6  606.34   18.19
   2 -11   3  382.56   11.48
   2  -4   4  647.92   19.44
   1  10   3 2556.17   76.69
   3   4   7  792.57   23.78
  -2  -3  -5  273.03    8.19
   3 -12   5  311.20    9.34
   1   8   3 3109.74   93.29
   4  -4   8   78.69    2.36
   3   6   7  766.66   23.00
  -1   1  -231507.72  945.23
   2  -2   427623.74  828.71
   2   7   5   44.16    1.32
   3   8   7  259.58    7.79
   2   9   5  269.70    8.09
  -3  -2  -7  730.59   21.92
  -3   7  -6 1305.16   39.15
  -2   4  -4  665.06   19.95
   1  -1   233752.25 1012.57
   4 -11   7  117.71    3.53
   3  -3   6  409.88   12.30
   2  -9   3 1634.85   49.05
   4  -2   8  289.92    8.70
   4   9   9   24.89     .75
  -2  13  -3  268.52    8.06
   3 -10   5   79.11    2.37
  -4   1  -9  115.39    3.46
  -1  -8  -3 2603.43   78.10
   2   0   4 9927.91  297.84
  -3  -4  -7 1361.74   40.85
  -3   5  -6  101.15    3.03
  -2   2  -423565.45  706.96
  -3  18  -5   37.59    1.13
   3  -1   6  316.92    9.51
   3  10   7  332.50    9.98
  -4  -1  -9  227.16    6.81
   3  12   7  147.97    4.44
  -3 -11  -8  130.87    3.93
  -2  -5  -5   37.24    1.12
  -3  14  -5  288.93    8.67
   3   1   6  157.61    4.73
  -3   3  -6  209.04    6.27
   2 -22   1   59.82    1.79
  -2  11  -3  287.99    8.64
   3  -8   5  125.53    3.77
   4   2   8 1652.72   49.58
  -2 -14  -6  144.20    4.33
  -4   6  -8  178.01    5.34
   4  -7   7  470.70   14.12
  -3  -6  -7  880.54   26.42
   2  -7   3 4704.53  141.14
   2   2   422346.96  670.41
  -2   0  -4 8069.50  242.09
  -3  12  -5  357.17   10.71
  -2   9  -3  674.42   20.23
   3  -6   5  912.61   27.38
   4  -5   7  572.71   17.18
   3   3   6 1001.88   30.06
   5 -11   8   77.56    2.33
   4   6   8  776.22   23.29
   3 -13   4  301.64    9.05
   2  13   5  116.02    3.48
  -3  -8  -7  468.57   14.06
  -4   2  -8  458.20   13.75
   4 -12   6   89.95    2.70
   3   5   6  316.29    9.49
   4  -3   7 1271.15   38.13
  -4   9  -7  115.74    3.47
  -2  -9  -5  534.18   16.03
  -3  -1  -6  100.89    3.03
  -4   7  -7  350.10   10.50
  -4  -2  -8  443.79   13.31
  -3   8  -5  181.13    5.43
   3  -4   5 1047.14   31.41
   5   2   9  145.87    4.38
   3 -11   4  241.66    7.25
  -4  -4  -8  114.28    3.43
  -2   4  -6  490.06   14.70
  -1   0  -3 4466.57  134.00
   1  -9   2 2286.36   68.59
   2 -14   4   55.10    1.65
   1   0   3 4602.94  138.09
   0  13   1  640.34   19.21
   2   2   6 2218.93   66.57
   2   4   6 1849.61   55.49
   3  -3   8  497.35   14.92
   2   6   6 2553.44   76.60
  -2  -7  -7  957.34   28.72
   0  15   1 1019.67   30.59
   1  11   4  170.95    5.13
  -2  -5  -7  347.56   10.43
  -1   9  -2 2660.88   79.83
  -1  11  -2 2016.37   60.49
   1   2   3 2970.55   89.12
   1  18   4   73.29    2.20
  -2  11  -5  190.74    5.72
   1  -7   2 3047.95   91.44
  -2   2  -6  607.57   18.23
   2 -12   4  401.44   12.04
   3   1   8  468.91   14.07
   1  15   4   86.74    2.60
  -2 -14  -8  102.15    3.06
  -3   2  -9  109.77    3.29
   1  -5   226255.79  787.67
   1   4   3 2440.24   73.21
   3   3   8  611.76   18.35
  -2  -2  -6 2390.17   71.71
  -1  -2  -3 2890.40   86.71
  -1   7  -2 3063.59   91.91
   2  -3   5  350.02   10.50
  -2  -9  -7  359.68   10.79
  -1  -9  -4  294.68    8.84
   2  -1   5 5537.36  166.12
   2   8   6  441.09   13.23
   2  10   6  230.03    6.90
  -3  -2  -9  427.06   12.81
  -1 -16  -5  132.08    3.96
   3  -6   7  222.49    6.67
  -2  -4  -6  826.25   24.79
   1 -12   1 1241.71   37.25
   2 -10   4  380.93   11.43
   1   6   3 5415.02  162.45
   3   5   8  660.22   19.81
  -2 -11  -7  506.59   15.20
   3 -13   6  384.33   11.53
   2   1   5 6384.31  191.53
  -1 -11  -4  295.91    8.88
  -1   5  -224494.92  734.85
   3  -4   7  328.37    9.85
   2  12   6  189.49    5.68
  -1  -4  -3 3127.06   93.81
   2  -8   4  797.78   23.93
  -2  -6  -6 2789.45   83.68
  -3   3  -8  514.78   15.44
  -2   3  -5  472.18   14.17
  -2  14  -4  268.53    8.06
   2  14   6  291.88    8.76
   3   9   8    8.76     .26
   3 -11   6  680.33   20.41
   3  -2   7  451.59   13.55
  -3   1  -8   15.92     .48
  -2   1  -5 2306.86   69.21
  -3  10  -7   10.65     .32
  -3  -1  -8  485.32   14.56
  -2  12  -4  168.77    5.06
   2   3   5  147.46    4.42
  -3   8  -7   21.99     .66
   4  -1   9  112.93    3.39
  -3   6  -7  228.27    6.85
   3   2   7  926.14   27.78
  -3  -3  -8  475.41   14.26
  -2  -8  -6  422.70   12.68
  -2  -1  -5 6784.97  203.55
  -3   4  -7  523.63   15.71
  -2  10  -4  391.60   11.75
   4  -8   8   88.42    2.65
  -3  -5  -8  253.56    7.61
  -2   8  -4  767.47   23.02
   2 -13   3  505.36   15.16
   1  -3   2 1381.21   41.44
   3 -14   5  250.99    7.53
   3  -7   6 1255.34   37.66
  -3  13  -6  273.36    8.20
  -1   3  -2 1389.47   41.68
   4  -6   8   79.02    2.37
  -1 -13  -4  132.58    3.98
   4  -7   8   33.80    1.01
   3  -5   6  105.49    3.16
  -1 -14  -7   83.22    2.50
  -1  -2  -5 5098.01  152.94
  -1  11  -4  308.60    9.26
  -1  13  -4  264.08    7.92
   1 -10   3  562.68   16.88
   0  17   1  257.51    7.73
   0  19   1  216.92    6.51
   2   0   8  182.41    5.47
   2   2   8  268.04    8.04
   1  -3   4 5365.68  160.97
  -1  -6  -5 2069.33   62.08
  -1   3  -4 6347.28  190.42
   0  21   1  105.64    3.17
   2   4   8  302.53    9.08
   2   6   8 1167.84   35.04
  -1 -11  -6  134.62    4.04
  -2   1  -9  534.57   16.04
  -2   3  -9  547.69   16.43
  -1   5  -4  206.90    6.21
   1   3   411474.13  344.22
   2  -7   7  335.28   10.06
   2   8   8   86.99    2.61
  -1  -4  -5   67.28    2.02
   1  -8   3 8092.42  242.77
   2 -14   6  125.09    3.75
   2 -12   6  315.22    9.46
   1  -6   3 2793.73   83.81
   2  -5   7   81.24    2.44
   2  -3   7  488.45   14.65
   1   5   4  491.65   14.75
  -2  -1  -9  175.68    5.27
  -2   8  -8  103.97    3.12
  -2  10  -8   62.29    1.87
   1 -13   2  216.35    6.49
   2 -17   5  100.33    3.01
  -1  16  -3  108.38    3.25
   1   1   4  313.13    9.39
  -2  -3  -9   42.37    1.27
  -2   4  -8  212.62    6.38
   2 -10   6  798.72   23.96
  -2  -5  -9  133.83    4.01
  -1   8  -3 7627.25  228.82
  -1  12  -3  274.57    8.24
   1  -4   3  819.55   24.59
   2  -1   7    2.88     .09
   2   3   7  388.51   11.66
   2  -8   6 1116.04   33.48
  -2   2  -8  287.44    8.62
  -1  -3  -4 4546.76  136.40
  -1   6  -3 1927.21   57.82
   1 -11   2 2821.37   84.64
  -1  10  -3  672.00   20.16
   2  -6   6  939.41   28.18
   2   5   7  266.49    7.99
  -1 -15  -6  123.51    3.71
  -2  -2  -8  362.70   10.88
  -2   7  -7  737.19   22.12
  -2   9  -7   65.84    1.98
   1   9   4  246.94    7.41
   2   7   7  652.85   19.59
  -1  -5  -4  149.73    4.49
  -2   5  -7  195.32    5.86
   2   9   7  344.03   10.32
  -2   3  -7  564.11   16.92
  -1   4  -3  573.21   17.20
   2  -4   6  580.41   17.41
  -2  -6  -8 1114.94   33.45
  -2  14  -6  174.70    5.24
   2 -18   4   62.67    1.88
   2  -2   6 2077.77   62.33
   3  -2   9   60.16    1.80
   2  11   7  434.22   13.03
  -2   1  -7    4.64     .14
  -2  -8  -8  117.02    3.51
  -2  10  -6  647.76   19.43
  -2  12  -6  366.75   11.00
  -1   2  -3  708.86   21.27
   1  -2   3 2072.96   62.19
  -2   8  -6 1189.29   35.68
   2 -11   5  146.44    4.39
   1  13   4  199.92    6.00
  -2   6  -6  367.24   11.02
   1 -16   1   61.14    1.83
  -1  19  -2  148.39    4.45
  -2  -3  -7  301.36    9.04
   0 -12  -2 2115.15   63.45
   0 -11  -1 9317.13  279.51
   0  -5  -159350.73 1780.52
   0  -6   033134.23  994.03
   0   4   043417.37 1302.52
   1  -9   6  332.94    9.99
   0  14   0 1014.23   30.43
   1   0   7   94.70    2.84
   1  10   7  194.54    5.84
   0 -14  -2 1145.75   34.37
   1   8   7  155.98    4.68
   0   6   028436.85  853.11
   0   8   031228.18  936.85
   0  16   0  225.06    6.75
   1   2   7  198.31    5.95
   1  12   7  148.05    4.44
   1  14   7    6.42     .19
   0 -17  -3  223.92    6.72
   0  -7  -128381.45  851.44
   0  12   0 4844.25  145.33
  -1   2  -9  121.88    3.66
  -1   4  -9   66.55    2.00
  -1   7  -8  268.73    8.06
   1  -5   6  119.51    3.59
  -1  -2  -9  266.58    8.00
  -1   3  -8  190.58    5.72
   1  -1   6  945.14   28.35
   1   1   6  934.41   28.03
  -1  -4  -9  120.68    3.62
  -1   0  -9    1.82     .05
  -1   9  -8   85.55    2.57
   0  10   013109.64  393.29
  -1   5  -8  239.77    7.19
  -1  14  -7  176.95    5.31
  -1   8  -7  164.01    4.92
   1  -6   5  804.17   24.13
  -1  -7  -8  187.72    5.63
  -1  10  -7  291.23    8.74
  -1  -5  -8   91.09    2.73
  -1   0  -7  107.14    3.21
  -1  12  -7   51.08    1.53
  -1   9  -6  253.76    7.61
   1 -13   4  345.55   10.37
   2  -2  10   80.56    2.42
   1  -4   5  345.14   10.35
   1  -2   5 4308.39  129.25
  -1  -2  -7  248.66    7.46
  -1  13  -6   83.06    2.49
   1 -11   4  421.83   12.65
  -1  15  -6   30.51     .92
   1   0   5  503.66   15.11
  -1   1  -6 1501.89   45.06
  -1  -1  -6  363.76   10.91
   1   2   5 3242.94   97.29
   1   4   5  244.31    7.33
   1   6   5 1324.80   39.74
   2  -5   9  424.40   12.73
   2  -3   9  598.82   17.96
  -1 -10  -7  443.65   13.31
  -1   6  -5  655.36   19.66
   2 -10   8  126.43    3.79
   1   8   5  422.62   12.68
   2  -1   9  714.81   21.44
   2   1   9  274.52    8.24
   2   3   9   73.37    2.20
  -1   2  -5 4735.57  142.07
  -1   4  -5   94.15    2.82
   2  -8   8   83.34    2.50
   2   5   9  152.61    4.58
  -1  16  -5   61.02    1.83
   2  -6   8  316.13    9.48
  -1   0  -5  285.52    8.57
   1 -19   2  159.31    4.78
   2  -4   8  279.47    8.38
  -1  -7  -6  147.79    4.43
   2  -2   8  197.25    5.92
   1 -12   3  111.27    3.34
   1  -5   4  238.41    7.15
   2 -11   7  288.13    8.64
   2  -9   7  180.18    5.41
  -1   9  -4   30.31     .91
  -1  19  -4   18.14     .54
  -1  15  -4  148.69    4.46
   0  -6  -6  346.93   10.41
   0  -9  -5  757.50   22.73
   0 -12  -4  569.78   17.09
   0 -10  -4  597.39   17.92
   0 -13  -3 2135.06   64.05
   0  -5  -5 1417.75   42.53
   0  -8  -4 1060.43   31.81
   0 -11  -3 2390.44   71.71
   0   0  -6  993.07   29.79
   0  -3  -5 2128.24   63.85
   0  -9  -3 5289.80  158.69
   0   2  -6  715.04   21.45
   0  -7  -3 6138.89  184.17
   0 -10  -2 8324.63  249.74
   0 -13  -1 2000.45   60.01
   0   1  -5 1120.57   33.62
   0  -2  -4 3581.86  107.46
   0  -5  -3 4631.12  138.93
   0  -8  -2 7153.00  214.59
   0   3  -5 1930.26   57.91
   0   2  -4 1875.64   56.27
   0  -1  -3 1491.84   44.76
   0 -12   0 2696.74   80.90
   0  -4  -2 8431.93  252.96
   0   4  -4 2472.39   74.17
   0   1  -3 1673.89   50.22
   0 -13   1  873.72   26.21
   0  -8   0 6146.68  184.40
   0 -11   1 2406.48   72.19
   0   5  -3 1793.45   53.80
   0   2  -2 4688.70  140.66
   0 -12   2 1242.60   37.28
   0   7  -3 6502.90  195.09
   0  -5   119332.51  579.98
   0  -6   2 8226.89  246.81
   0  -9   3 2280.20   68.41
   0  -4   2 4655.52  139.67
   0  -7   3 4457.34  133.72
   0   7  -112515.39  375.46
   0   1   114539.08  436.17
   0  -2   2 3189.56   95.69
   0  -5   3 3924.85  117.75
   0   0   2 3980.98  119.43
   0   5   160590.33 1817.71
   0  -6   4  808.15   24.24
   0   2   2 1238.41   37.15
   0  -1   3 1371.70   41.15
   0  -4   4 1009.39   30.28
   0   4   2  989.75   29.69
   0  -3  -7  502.15   15.06
   0 -14  -4  397.36   11.92
   0 -15  -3  913.34   27.40
   0  -4  -6  680.40   20.41
   0 -18  -2  229.55    6.89
   0  -7  -5 1107.47   33.22
   0   1  -7  296.06    8.88
   0  -6  -4 6900.31  207.01
   0   4  -6  523.33   15.70
   0 -14   0 1843.84   55.32
   0   5  -5  568.58   17.06
   0 -15   1  770.95   23.13
   0   6  -4  633.26   19.00
   0   8  -4  503.19   15.10
   0  -9   1 3140.07   94.20
   0 -10   2 2778.89   83.37
   0   9  -3 5138.84  154.17
   0  -3   117651.08  529.53
   0   5  -126088.28  782.65
   0   3   1 8847.96  265.44
   0  -3   3 1058.33   31.75
   0   1   3  702.26   21.07
   0 -13  -5  297.46    8.92
   0  -5  -7  132.54    3.98
   0  -8  -6  325.20    9.76
   0  -2  -6  587.18   17.62
   0   3  -7  257.21    7.72
   0 -15  -1  939.34   28.18
   0  -4  -4 1619.84   48.60
   0  -6  -2 9751.71  292.55
   0   7  -5  302.57    9.08
   0 -10   0 3867.67  116.03
   0  -2  -2 5641.06  169.23
   0   3  -3 1238.48   37.15
   0   0  -2 4059.20  121.78
   0  -3  -119442.75  583.28
   0  -7   120320.67  609.62
   0   4  -2 3312.13   99.36
   0   1  -1 9343.03  280.29
   0  -8   2 3895.82  116.87
   0   8  -210691.72  320.75
   0  -1   112126.63  363.80
   0 -11  -7   87.09    2.61
   0  -9  -7  318.31    9.55
   0 -12  -6  187.40    5.62
   0  -4  -8  197.00    5.91
   0  -7  -7  145.89    4.38
   0 -10  -6  573.57   17.21
   0  -2  -8  212.88    6.39
   0 -11  -5  352.23   10.57
   0   0  -8  261.59    7.85
   0   4  -8  206.79    6.20
   0   7  -7  446.04   13.38
   0   0  -4 1361.58   40.85
   0   9  -5  432.87   12.99
   0   6  -2 4089.24  122.68
   0  10  -2 5826.58  174.80
   0  -5  -9   71.52    2.15
   0  -8  -8   53.59    1.61
   0  -3  -9  128.47    3.85
   0  -6  -8  260.72    7.82
   0  -1  -9  201.69    6.05
   0   2  -9   41.49    1.24
   0   6  -8   84.80    2.54
   0   5  -7  308.83    9.27
   0  -1  -5  714.33   21.43
   0   6  -6  317.12    9.51
   0  -3  -3  706.50   21.20
   0   8  -6 1062.87   31.89
   0  10  -4  457.27   13.72
   0  11  -3 3073.74   92.21
   0 -10  -8   76.79    2.30
   0   1  -9   48.23    1.45
   0   5  -9   62.75    1.88
   0   2  -8  235.54    7.07
   0  -1  -7   84.05    2.52
   0   9  -7   89.78    2.69
   0  10  -6  330.15    9.90
   0  -1  -113806.15  414.18
   0  12  -4  934.24   28.03
   0   3  -1 6467.03  194.01
   0  12  -2  712.15   21.36
   0 -14  -6  203.03    6.09
   0   3  -9    4.45     .13
   0   7  -9   74.69    2.24
   0   8  -8  155.09    4.65
   0  11  -7  194.59    5.84
   0  14  -6  224.96    6.75
   0  14  -4  430.73   12.92
   0 -16  -6  135.00    4.05
   0 -15  -5   92.04    2.76
   0 -16  -4  173.40    5.20
   0  12  -8   18.14     .54
   0  11  -5  242.19    7.27
   0  13  -3 1307.23   39.22
   0 -14  -8   72.71    2.18
   0  13  -7  161.36    4.84
   0  15  -7  113.36    3.40
   0  15  -5  208.56    6.26
   0  14  -2  581.12   17.43
   0 -18  -4  122.78    3.68
   0  12  -6   76.28    2.29
   0  13  -5   67.88    2.04
   0 -17  -5   23.68     .71
   0  16  -6  103.02    3.09
   0  15  -3  356.34   10.69
   0   7   1 1240.30   37.21
   0  16  -4  218.79    6.56
   0  17  -3   54.51    1.64
   0  17  -5  142.10    4.26
   0  19  -5  117.41    3.52
   0  20  -4  116.99    3.51
   1   1  10   95.81    2.87
   1   3  10   88.52    2.66
   0  18  -2  146.37    4.39
   0  19  -3   74.24    2.23
   0  21  -3  108.59    3.26
   1   2   9  220.51    6.62
   0  16  -2  286.58    8.60
   1  -4   9    7.97     .24
   1   0   9  229.43    6.88
   1   4   9   37.92    1.14
   1   6   9   30.17     .90
   0  20  -2  163.33    4.90
   1  -5   8  229.93    6.90
   0  19  -1  200.41    6.01
   1  -7   8  215.93    6.48
   1   1   8   68.20    2.05
   1   9   8  128.40    3.85
   1 -10   7  442.38   13.27
   1  -3   8  391.02   11.73
   1  -1   8  211.33    6.34
   1   7   8  118.72    3.56
   1 -14   7   45.41    1.36
   1 -12   7  397.83   11.93
   1  -8   7  148.67    4.46
   1   5   8  180.92    5.43
   0  22  -2   77.31    2.32
   1  -6   7  198.76    5.96
   1 -15   6   25.36     .76
   0  21  -1  122.67    3.68
   1   6   7   90.75    2.72
   0   6   2 9106.87  273.21
   0   8   225582.30  767.47
   0  10   2 4246.73  127.40
   0   9   3 4869.23  146.08
   0  11   3  613.87   18.42
   0  14   4  491.89   14.76
   0  15   5  883.68   26.51
   0   7   325221.42  756.64
   0  12   4  563.73   16.91
   0  13   5  261.04    7.83
   0  14   6  363.86   10.92
   1   3  -8   43.55    1.31
   1   5  -8  149.22    4.48
   0 -19  -1  229.42    6.88
   1  10  -7  298.01    8.94
   1  -2  -9  231.37    6.94
   1   2  -9  315.10    9.45
   1   7  -8  167.68    5.03
   0  10   4  697.40   20.92
   0 -17  -1  503.58   15.11
   0  11   7  192.03    5.76
   0 -20   0  181.24    5.44
   0 -16   0 1089.39   32.68
   0  10   6   80.38    2.41
   0  10   8  203.88    6.12
   0   8   6  264.68    7.94
   0   5   3  719.14   21.57
   0   8   4  432.81   12.98
   0   9   7  231.92    6.96
   0 -19   1  205.92    6.18
   0 -17   1  644.50   19.34
   0   6   8  382.21   11.47
   0   4   4 1421.79   42.65
   0   9   5   89.29    2.68
   0   6   6   92.77    2.78
   0   3   5 3322.67   99.68
   0   5   5  458.85   13.77
   0   4   6  484.57   14.54
   0   2   8  177.63    5.33
   0 -18   0  428.55   12.86
   0 -21   1  127.71    3.83
   0   3   3  350.83   10.52
   0   0   4 1889.29   56.68
   0   7   5  204.27    6.13
   0 -16   2  273.36    8.20
   0 -14   2  628.73   18.86
   0  -2   4 2367.35   71.02
   0  -6   8  152.13    4.56
   0   2   6  218.99    6.57
   0  -1   7  142.06    4.26
   0   0   8  123.55    3.71
   0 -15   3  184.93    5.55
   0 -11   3  679.84   20.40
   0 -12   4  512.11   15.36
   0  -9   5  708.44   21.25
   0  -7   5  420.73   12.62
   0 -13   7   82.54    2.48
   0  -8   6  205.86    6.18
   0 -11   7   62.75    1.88
   0  -1   5  503.85   15.12
   0  -7   7  192.13    5.76
   0  -2   6  345.27   10.36
   0  -8   8   83.73    2.51
   0   0   6  281.18    8.44
   0  -4   8  163.44    4.90
   0  -2   8  145.10    4.35
   0 -14   4  294.34    8.83
   0 -13   5  206.76    6.20
   0  -8   4  212.40    6.37
   0 -11   5  356.21   10.69
   0  -5   5 1694.11   50.82
   0   1   5  406.06   12.18
   0  -5   7   16.20     .49
   0 -17   3  121.82    3.65
   0 -10   4  519.05   15.57
   0 -12   6  133.68    4.01
   0  -3   5 2770.99   83.13
   0  -6   6  341.47   10.24
   0  -9   7  114.75    3.44
   0   2   4 1494.98   44.85
   0 -13   3  240.32    7.21
   0 -10   6  253.51    7.61
   0  -4   6  179.90    5.40
   1  -2  -5 3172.60   95.18
   1   3  -4 2891.19   86.74
   1   8  -3 1986.88   59.61
   1  10  -3 1047.87   31.44
   1  15  -2  388.41   11.65
  -1   8   7   88.73    2.66
  -1 -11   4  282.48    8.47
  -1  -2   5 2164.90   64.95
  -1   1   6  693.67   20.81
   0  13   3 4592.43  137.77
  -1   3   6  486.84   14.61
   0  15   3  172.53    5.18
   0  18   4  246.16    7.38
   1  -9  -6  390.57   11.72
  -1   6   7  145.51    4.37
   2   1  -9  145.05    4.35
  -1  -6   5 1844.43   55.33
  -1  -1   6  864.26   25.93
   0  16   4  160.06    4.80
  -1   9   8   20.76     .62
   1  12  -3  266.62    8.00
   1   0  -5  232.10    6.96
   1   2  -5 4160.45  124.81
  -1   7   8  178.04    5.34
   1  20  -1   55.16    1.65
   2   5  -9   49.31    1.48
   1  17  -2  112.17    3.37
  -1   5   8  176.65    5.30
   1  -5  -6  107.02    3.21
  -1   3   8  327.41    9.82
   0  19   5  117.59    3.53
   1 -14  -7  139.26    4.18
   1 -12  -7  104.76    3.14
   1 -10  -7  540.04   16.20
   1  -1  -6  663.50   19.90
   1   4  -5  273.03    8.19
   1   6  -5 1857.38   55.72
  -1  -2   7  101.01    3.03
   1  11  -4 1026.53   30.80
  -1 -11   6  146.89    4.41
   1   1  -6 1057.22   31.72
   1  14  -3   78.45    2.35
  -1   2   9  178.10    5.34
   1  16  -3   52.43    1.57
   1  21  -1   51.77    1.55
   0 -22  -2   81.28    2.44
  -1  -3   8   63.14    1.89
   1  -8  -7   66.89    2.01
  -1 -10   7  377.60   11.33
  -1  -5   8   73.66    2.21
  -1   3  10   82.50    2.48
   0 -20  -2   88.77    2.66
   1  13  -4   67.54    2.03
  -1  -2   9  561.49   16.84
   0  17   5  152.99    4.59
  -1  -7   8  370.09   11.10
   1  -7  -8  183.92    5.52
   1  -5  -8  103.82    3.11
   1  -3  -8  444.08   13.32
   1   9  -6   44.81    1.34
   1  14  -5   61.24    1.84
   1  11  -6  219.16    6.57
   1   0  -3  699.87   21.00
  -1  -9   2  817.95   24.54
   1   7  -2 8718.63  261.56
  -1  -2   3 1331.37   39.94
  -2  -4   6 1254.90   37.65
   0  12   2  106.87    3.21
  -2   1   7   96.74    2.90
   2  -7  -7  604.97   18.15
   2   2  -6 1666.49   49.99
  -1 -11   2 5817.06  174.51
  -2  -6   6 1956.56   58.70
   1  -7  -4  146.28    4.39
   1   2  -3 1704.47   51.13
   1   9  -2  808.74   24.26
  -1  -4   3 2739.00   82.17
  -2  -8   6  221.96    6.66
  -1   8   5  229.90    6.90
  -2   6   8   61.12    1.83
   3   2  -9  476.80   14.30
  -1 -13   2  362.44   10.87
  -2   4   8  294.21    8.83
  -1   3   4 6806.02  204.18
  -2  -3   7  207.27    6.22
   2   4  -6 1026.56   30.80
  -2   2   8  239.63    7.19
   1 -14  -5   22.29     .67
   2  -3  -7  344.45   10.33
   1   4  -3 2168.28   65.05
  -1  -6   3 3388.08  101.64
   3   4  -9   73.91    2.22
  -2 -14   6  111.71    3.35
  -2  -5   7  304.40    9.13
  -1   6   5  600.73   18.02
  -2   0   8  110.03    3.30
  -1  11   6   87.70    2.63
  -2   5   9  116.75    3.50
   2   6  -6 2146.23   64.39
   1  -3  -4 5175.38  155.26
   2  11  -5  155.35    4.66
  -1  -8   3 2186.01   65.58
   1  11  -2 5121.83  153.65
  -2  -7   7  739.56   22.19
  -2   3   9  263.25    7.90
   2  -1  -7  138.93    4.17
  -2  -9   7  304.10    9.12
  -2  -2   8  208.19    6.25
  -1   9   6  390.52   11.72
  -1  14   7   71.89    2.16
   2 -10  -8   53.34    1.60
   2  -8  -8  100.51    3.02
   2   8  -6  262.24    7.87
   1   6  -3 1181.47   35.44
   2  18  -4   98.89    2.97
  -2 -11   7  332.20    9.97
  -2   1   9  600.67   18.02
  -1 -10   3 1085.29   32.56
  -2  -4   8  215.16    6.45
   2  -6  -8  247.59    7.43
  -2  -6   8  984.79   29.54
  -2  -1   9  167.78    5.03
   2  -4  -8  226.23    6.79
   2   3  -7  308.09    9.24
  -1  -3   4 6771.26  203.14
  -1  12   7   62.64    1.88
   1  13  -2  586.49   17.59
  -1   2   5 2245.07   67.35
  -2  -3   9   69.12    2.07
   2  -2  -8  200.89    6.03
   2   5  -7  269.97    8.10
   1  -6  -5 1102.12   33.06
   2   7  -7  507.82   15.23
   2  12  -6   62.89    1.89
  -1 -12   3  192.37    5.77
  -2  -5   9  150.20    4.51
  -1  10   7  821.27   24.64
   2   0  -8  226.64    6.80
   1 -15  -6  132.55    3.98
   2   2  -8  355.60   10.67
   2   9  -7  202.05    6.06
   2  14  -6  207.40    6.22
   2  -5  -9  420.41   12.61
  -1   0   5  137.25    4.12
   1  21   0  121.97    3.66
  -1   5   6   74.31    2.23
   1  -4  -5  100.47    3.01
   2  -3  -9  357.08   10.71
   2  11  -7  312.28    9.37
   2  16  -6   89.54    2.69
  -1  -9   4   67.10    2.01
   2  -1  -9  437.56   13.13
   2   6  -8  558.89   16.77
   1   5  -4  156.90    4.71
   2  -3  -5  631.12   18.93
   2   4  -4 3700.26  111.01
  -1 -12   1 1052.01   31.56
  -1 -10   1  748.36   22.45
   2  11  -3  183.11    5.49
  -2  -8   4   84.22    2.53
  -3 -11   6  126.12    3.78
  -1   4   3  486.91   14.61
  -2  -1   5 4545.85  136.38
  -2   1   5 4416.58  132.50
  -3  -4   7  844.13   25.32
  -2   6   6  860.48   25.81
  -3   3   8  289.63    8.69
   2 -12  -6  421.50   12.64
   3  -2  -7  350.28   10.51
  -3  -6   7  609.13   18.27
   1 -13  -4  314.89    9.45
   2  -1  -5 4975.66  149.27
   1  -6  -3 2035.90   61.08
   3   7  -6  133.89    4.02
  -3   1   8   73.12    2.19
  -1  14   5  161.36    4.84
  -3   6   9   54.55    1.64
   3  -9  -8   72.50    2.18
   2 -10  -6  964.72   28.94
  -1  -5   218755.35  562.66
  -3  -1   8  285.72    8.57
   2  -8  -6  887.75   26.63
   4   3  -9   10.44     .31
   0 -17  -2   22.33     .67
   3   2  -7  635.45   19.06
   1  -4  -3  557.15   16.71
   2   6  -4  111.43    3.34
  -3  -8   7  209.12    6.27
  -2   4   6  354.64   10.64
  -2 -10   4  242.61    7.28
   1 -11  -4  523.98   15.72
  -1 -14   1  160.94    4.83
  -2  -3   5  118.45    3.55
  -3  -3   8  284.79    8.54
   3   4  -7  689.35   20.68
   2   1  -5 3596.88  107.91
   1   5  -220724.55  621.74
  -3 -10   7  166.27    4.99
  -2   2   6  984.62   29.54
   3  11  -6  164.49    4.93
   2   8  -4  160.12    4.80
  -3 -12   7  121.35    3.64
  -3   2   9   97.09    2.91
   3  -3  -8  267.26    8.02
  -1  -7   2 8054.72  241.64
  -2 -12   4  293.57    8.81
  -1   2   3  638.59   19.16
  -3  -5   8  184.23    5.53
  -2   7   7  254.69    7.64
  -2  12   8   56.32    1.69
   2  -6  -6  846.12   25.38
  -1 -16   1  162.09    4.86
   3  -1  -8  183.16    5.49
   3   6  -7  554.51   16.64
   2   3  -5  393.06   11.79
   1  -2  -3 1924.11   57.72
   3  13  -6   11.95     .36
   2  10  -4  349.56   10.49
   2  15  -3  225.79    6.77
   2  -4  -6  470.74   14.12
  -2 -14   4   51.14    1.53
  -3  -2   9  580.83   17.42
   3   1  -8  404.80   12.14
  -1   0   3 2891.02   86.73
  -2  -2   6 1365.29   40.96
  -2  10   8  146.77    4.40
   3   8  -7  247.02    7.41
  -1  15   6   91.16    2.73
   2  -2  -6  904.73   27.14
  -2 -18   4   85.90    2.58
  -2   3   7  393.98   11.82
   3   3  -8  285.12    8.55
   3  10  -7  220.35    6.61
  -1 -18   1  125.85    3.78
  -2   8   8   43.65    1.31
   2 -11  -7  132.42    3.97
   1  17   0   73.23    2.20
   3   5  -8  262.22    7.87
   3  12  -7   83.99    2.52
   2   7  -5   63.24    1.90
   1 -10  -3  569.13   17.07
   1  -8  -3 5926.41  177.79
   2  -2  -420864.53  625.94
   1  -1  -229081.16  872.43
   2   5  -3 2053.14   61.59
  -1  -6   122270.36  668.11
   1   6  -123041.04  691.23
  -2  -7   3 6270.76  188.12
   2  12  -2  231.07    6.93
  -1   1   227524.53  825.74
  -3  -6   5  316.59    9.50
  -2   0   4 2425.16   72.75
  -2   2   415323.55  459.71
  -4  -7   7  632.88   18.99
  -1   8   3 6267.21  188.02
  -3   1   6  128.08    3.84
   3   4  -5 1494.64   44.84
   3  11  -4   83.47    2.50
   4  10  -6   98.82    2.96
  -1  -8   1  104.08    3.12
   1  18   1  171.73    5.15
   4  -6  -8   31.84     .96
   3  -3  -6  609.41   18.28
   4   3  -7  183.73    5.51
  -3  -8   5  376.07   11.28
  -1  13   4  371.99   11.16
  -2  12   6  359.38   10.78
  -4  -9   7  232.61    6.98
  -4  -2   8  182.63    5.48
   5   2  -9  280.93    8.43
  -1  -1   224227.36  726.82
  -1   6   3 1812.42   54.37
  -3   6   7  178.50    5.35
   2   7  -3 8639.98  259.20
  -2  -9   3  278.56    8.36
   4   5  -7  645.01   19.35
   2   0  -4 4303.49  129.10
   3   6  -5  205.58    6.17
   2  -9  -5  257.45    7.72
  -3  -3   6  587.97   17.64
   3 -10  -7  148.09    4.44
   4  -2  -8  390.98   11.73
   3  -1  -6  256.90    7.71
   5  11  -8   15.07     .45
  -2  -2   418362.24  550.87
   1   1  -227959.79  838.79
   4   7  -7  617.87   18.54
  -4  -6   8  272.23    8.17
  -2   5   5  122.27    3.67
  -2  10   6  664.75   19.94
  -4   1   9   92.67    2.78
  -3   9   8   24.38     .73
   3  13  -4   25.73     .77
  -2 -11   3  273.72    8.21
  -3   2   7  372.33   11.17
   3  -8  -7    3.93     .12
   3   8  -5   54.50    1.63
   2   2  -417903.75  537.11
  -3  -5   6  983.77   29.51
  -1  11   4  261.24    7.84
   3  -6  -7  499.19   14.98
   2  -7  -5  144.07    4.32
   2   9  -3  327.30    9.82
  -2   3   5  519.61   15.59
  -4  -1   9   48.03    1.44
   4   9  -7  185.85    5.58
  -2  -4   4 1969.12   59.07
   4   2  -8  212.53    6.38
  -3  -7   6  276.42    8.29
  -2   8   6  188.90    5.67
   3   3  -6  732.92   21.99
   2  -5  -5  168.44    5.05
  -2 -13   3   64.38    1.93
  -3  -2   7  446.86   13.41
   2 -14  -6   20.25     .61
   3 -13  -8   86.78    2.60
   4   6  -8   79.81    2.39
   3   5  -6  503.16   15.09
   1   3  -2   27.93     .84
   2  -8  -4  668.11   20.04
   4   0  -6  666.19   19.99
   3  -4  -5  666.47   19.99
  -2  -8   2 2461.09   73.83
  -1  -4   178521.90 2355.66
   2   8  -211701.89  351.06
   1   4  -174065.55 2221.97
  -4 -11   5  147.70    4.43
  -2  -1   3 1051.67   31.55
  -5  -8   7  237.74    7.13
  -1  10   3  496.53   14.90
  -2   6   4  202.98    6.09
   0  14   2  326.45    9.79
  -5  -1   8  204.44    6.13
   5   4  -7  312.34    9.37
  -2 -10   2 1347.02   40.41
  -4   3   7  723.40   21.70
   1 -12  -3  318.13    9.54
   6   8  -8   48.57    1.46
   3  12  -3  349.02   10.47
  -4  -4   6  299.25    8.98
  -3   7   6  759.55   22.79
   3 -11  -6  338.89   10.17
   5  -3  -8  189.35    5.68
  -3 -16   3   79.88    2.40
  -1   3   2  959.59   28.79
  -5 -10   7   59.10    1.77
  -3   0   5 6239.62  187.19
   4  -7  -7  154.08    4.62
   6   1  -9   13.22     .40
   2   1  -3  925.39   27.76
   4   9  -5  137.75    4.13
   1  -3  -2 1678.38   50.35
   3   5  -4  193.44    5.80
  -2  11   5  234.24    7.03
   5   6  -7   78.49    2.35
   4   2  -6  294.95    8.85
  -4  -6   6  462.07   13.86
  -2   4   4  615.70   18.47
   4  -5  -7  168.09    5.04
  -5   2   9  104.98    3.15
   4   4  -6  253.57    7.61
   3   0  -5 6139.28  184.18
   5   8  -7  210.58    6.32
  -3  -2   5  264.93    7.95
   5   1  -8  150.01    4.50
   2  10  -2 1504.26   45.13
  -3   5   6   91.05    2.73
   4  -3  -7  768.18   23.05
   4 -12  -8   92.12    2.76
   5  10  -7   99.81    2.99
   2   3  -3   95.69    2.87
  -2   9   5  415.18   12.46
  -5  -2   9  243.39    7.30
  -3  10   7  181.04    5.43
   3  -7  -6 1202.87   36.09
   2  -4  -4  647.18   19.42
   4   6  -6  380.26   11.41
  -3  -4   5  521.77   15.65
  -4  -3   7   83.59    2.51
  -3   3   6  373.15   11.19
  -2  -5   3  707.78   21.23
  -2  14   6   16.42     .49
   3   2  -5  401.36   12.04
  -4  -5   7  609.18   18.28
  -4   2   8  125.36    3.76
  -3   8   7   42.42    1.27
  -5  -6   9   85.23    2.56
   5  -2  -9   41.84    1.26
   3  16  -3   63.85    1.92
   2 -11  -5  121.51    3.65
   6   5  -7   60.92    1.83
   5   3  -6  279.72    8.39
   3  -1  -4 8898.95  266.97
   3   6  -3 1730.34   51.91
   1   2  -111441.70  343.25
  -3  -8   3 1069.53   32.09
  -4   4   6  429.02   12.87
  -5   2   7  259.73    7.79
  -1  -2   119976.68  599.30
   3  13  -2  326.80    9.80
  -1   5   223722.82  711.68
  -4  -3   5  682.75   20.48
  -1  12   3  207.73    6.23
  -6  -2   8  172.07    5.16
  -3  13   6  138.41    4.15
   2  -3  -3  590.48   17.71
   1  -5  -223765.37  712.96
  -3  -1   4 4703.27  141.10
   6  -2  -8 1051.72   31.55
   5  -4  -7  668.33   20.05
   4  -6  -6  183.68    5.51
   1  16   1  240.07    7.20
  -3   6   5   57.37    1.72
   6   0  -8  313.58    9.41
   3  -8  -5   22.27     .67
   4   3  -5  855.89   25.68
   3   1  -4 4049.30  121.48
   3   8  -3 1222.04   36.66
  -2  -6   2  163.73    4.91
  -4   2   6 1548.51   46.46
  -4   9   7   71.85    2.16
   7   2  -9  126.81    3.80
   4  17  -3   70.05    2.10
  -2   1   3  466.44   13.99
   5  -2  -7  316.96    9.51
   2 -10  -4  134.50    4.03
   2   6  -2  333.14    9.99
  -3 -10   3  323.69    9.71
  -2   8   4  485.17   14.56
   4  -4  -6  177.86    5.34
  -3  11   6  279.65    8.39
   5 -11  -8   25.87     .78
  -3  -3   4 1041.81   31.25
  -3   4   5  988.16   29.64
   6   2  -8   82.20    2.47
   5   7  -6  128.39    3.85
   2  -1  -3 1417.25   42.52
  -6  -8   8   78.01    2.34
  -4   0   6  300.68    9.02
  -5  -4   7  131.45    3.94
   3  -6  -5  411.88   12.36
  -4  -7   5  106.27    3.19
  -5   3   8  276.60    8.30
   4  -2  -6 1153.19   34.60
  -2 -17   1   75.40    2.26
   4  12  -4   36.69    1.10
   3  10  -3  347.21   10.42
  -3 -12   3   92.05    2.76
   3   3  -4 1238.43   37.15
  -4  -9   5  165.90    4.98
   3 -13  -6  138.65    4.16
  -4  -2   6  356.39   10.69
  -3   9   6  123.84    3.72
   4  -9  -7  227.79    6.83
  -3  -5   4  188.40    5.65
   3  17  -2   99.14    2.97
  -3 -14   3  186.12    5.58
  -1  15   4   94.65    2.84
   5   4  -5  596.43   17.89
  -3 -11   2 2589.64   77.69
   6  -3  -7  577.67   17.33
   4  -5  -5  783.10   23.49
   3  -5  -4  545.25   16.36
   2   2  -2 1004.83   30.14
  -6  -8   6  238.69    7.16
   2  16   0  238.07    7.14
   1  -7  -2 2616.07   78.48
   4   4  -4 3068.83   92.06
   4  11  -3  246.77    7.40
  -2  -2   2  707.48   21.22
   7   6  -7  237.69    7.13
   5  -3  -6  304.24    9.13
   6   6  -6  512.66   15.38
  -3  -4   3 1666.17   49.99
   7  -1  -8  193.93    5.82
  -3 -13   2  343.84   10.32
   3  11  -2 2466.65   74.00
  -3   3   4  572.16   17.16
  -4   8   6  318.31    9.55
   4  -3  -5   84.80    2.54
   3   4  -3 1910.06   57.30
  -6   4   8   52.36    1.57
   5 -10  -7   26.17     .79
   7   1  -8  245.64    7.37
   6   8  -6  388.34   11.65
   3  -3  -4 1489.96   44.70
  -3  -6   3 1813.36   54.40
   2 -14  -4  157.04    4.71
   4   6  -4  106.07    3.18
  -2  -4   2  869.55   26.09
  -4  -8   4   56.71    1.70
  -2  10   4  192.30    5.77
  -5   4   7  844.00   25.32
  -6   2   8  391.34   11.74
  -3   1   4 9287.74  278.63
   2   4  -2 1165.01   34.95
  -2   3   3 1255.69   37.67
  -3   8   5  149.04    4.47
  -4   6   6  302.72    9.08
  -4  -1   5  109.66    3.29
   4  -8  -6  235.13    7.05
  -6   0   8  328.87    9.87
  -4 -10   4  289.92    8.70
   6  -4  -8  144.90    4.35
   2  18   0   76.39    2.29
   4   1  -5  164.99    4.95
   7  -2  -7  655.66   19.67
   6  -2  -6 1651.03   49.53
   4   7  -3  698.01   20.94
   3   7  -2  516.97   15.51
   2   7  -1 5072.93  152.19
  -2   0   2 6788.54  203.66
  -7  -9   6  302.77    9.08
  -4   0   4 2314.56   69.44
  -2   7   3 3298.61   98.96
  -5   7   6 1329.21   39.88
   2   0  -2 7723.48  231.70
  -6  -9   5  293.68    8.81
   1   0  -123864.11  715.92
  -1   0   121202.56  636.08
   4   0  -4 2226.89   66.81
   6   7  -5  899.70   26.99
   5   7  -4  318.03    9.54
  -7  -2   7  338.28   10.15
   7   7  -6 1040.82   31.22
  -4  -9   3  193.73    5.81
  -1   7   2 2971.21   89.14
   6  -9  -7   98.61    2.96
   5   0  -5  367.97   11.04
  -3  -9   2  450.49   13.51
  -6  -2   6  368.65   11.06
   9   7  -8   73.73    2.21
  -6   5   7  138.39    4.15
   5  -7  -6 1088.28   32.65
  -6 -11   5  261.59    7.85
  -5   5   6  125.82    3.77
   2  -7  -3 6208.82  186.26
  -4   5   5  882.16   26.46
  -4  -2   4  499.40   14.98
   6  -7  -7  266.87    8.01
  -6  -4   6  160.80    4.82
  -7  -4   7   71.51    2.15
   7   9  -6  194.64    5.84
  -6   3   7  581.03   17.43
  -6  10   8  121.23    3.64
   7   2  -7  246.78    7.40
   6   2  -6  479.62   14.39
  -3  -2   3  340.22   10.21
   4   9  -3  194.63    5.84
  -4 -11   3  425.15   12.75
  -5  -4   5  713.63   21.41
  -7  -6   7  283.78    8.51
   4   2  -4  455.74   13.67
   3   9  -2  518.08   15.54
  -3   5   4  406.76   12.20
  -5   3   6  272.84    8.19
  -3  12   5  165.50    4.97
  -7   1   8  213.99    6.42
   3   2  -3  768.16   23.04
  -6  -6   6  512.66   15.38
  -4  -4   4 3729.56  111.89
   7   4  -7   66.13    1.98
   6   4  -6  247.91    7.44
  -7  -1   8  101.52    3.05
   3 -14  -5  164.26    4.93
   4  -4  -4 3599.23  107.98
   6   1  -5  829.46   24.88
   2  -2  -2 1194.67   35.84
   1  -9  -2 1099.04   32.97
  -5 -12   3   45.10    1.35
  -3  -5   2  813.94   24.42
  -6  -3   5  172.70    5.18
  -2   9   3 1107.56   33.23
   3   5  -2  648.94   19.47
  -8 -10   6   88.33    2.65
  -7  -3   6  709.10   21.27
  -6   4   6  417.82   12.53
   5   3  -4  484.17   14.53
   6  -6  -6  626.40   18.79
  -4  -5   3  310.76    9.32
  -7   4   7  505.99   15.18
   6  10  -4  420.78   12.62
  -2  -7   1 5533.16  165.99
   4  12  -2  465.55   13.97
  10   6  -8  127.85    3.84
  -4   2   4 2847.33   85.42
   6   3  -5  251.90    7.56
   2  -9  -3 1297.24   38.92
  -7  -5   6  931.86   27.96
  -6   2   6 1658.96   49.77
   6  -4  -6  167.24    5.02
   7   3  -6  676.72   20.30
  -1 -16  -1   90.95    2.73
   4 -11  -5  482.82   14.48
   4   5  -3   98.99    2.97
  -7   2   7  368.10   11.04
   5  12  -3  388.93   11.67
   4  -2  -4 3776.57  113.30
  -2 -16   0  155.94    4.68
   5   5  -4  203.57    6.11
   7  -4  -7  532.56   15.98
   6  12  -4   40.63    1.22
  -4  -7   3  660.12   19.80
  -5  -7   4  407.18   12.22
  -6  -7   5  707.04   21.21
  -7  -7   6  996.66   29.90
   2  14   0  191.83    5.75
   7   5  -6  841.33   25.24
  -6   7   7  240.36    7.21
  -5   0   5  245.83    7.37
  -3  14   5   93.26    2.80
  -3   7   4  291.70    8.75
   2  -4  -2 8009.68  240.29
  -1   9   2 1163.44   34.90
   4   8  -2 2804.77   84.14
  -7   3   6   97.09    2.91
  -2  -5   114827.23  444.82
  -5  -8   3  877.21   26.32
  -1   2   1 2105.89   63.18
  -4   6   4  689.62   20.69
   8   9  -5  111.74    3.35
   4   1  -3  305.17    9.16
   7  11  -4  396.17   11.89
  -8  -4   6  320.65    9.62
  -6   1   5 1013.57   30.41
   8   2  -6  608.44   18.25
  -4 -10   2  225.14    6.75
   2  12   0  247.50    7.43
  -6   8   6  266.26    7.99
  -7  -6   5  629.62   18.89
   7   4  -5    9.22     .28
  -8   3   7  109.09    3.27
   2   5  -114699.31  440.98
  -3   4   3  964.16   28.92
   8  -5  -7  132.92    3.99
   3 -13  -4  124.78    3.74
   4  -6  -4  679.01   20.37
   5   8  -3  826.05   24.78
   6  -1  -5 1193.48   35.80
  -8  -6   6  288.65    8.66
 -10  -3   8   43.64    1.31
   2 -11  -3  128.23    3.85
  -6 -17   3  165.17    4.95
  -4  -3   3  615.19   18.46
   8   4  -6  304.88    9.15
   3  -4  -3  898.90   26.97
   7   6  -5  731.93   21.96
  -6  -1   5  807.94   24.24
   4  10  -2  262.19    7.87
  -4   4   4 4402.13  132.06
  -6   6   6  325.38    9.76
  -4  11   5  330.24    9.91
   8  -3  -7  124.37    3.73
  -2   2   2 1057.60   31.73
 -10  -6   8   87.71    2.63
   6  -8  -6  296.88    8.91
   4   3  -3  848.97   25.47
  -4 -12   2  319.18    9.58
  -6 -10   4  297.87    8.94
  -2 -14   0  126.54    3.80
  -5  -3   4  377.36   11.32
   8   6  -6  334.83   10.04
   5  -6  -5   69.59    2.09
   1 -11  -2  789.86   23.70
   4   6  -2 3592.68  107.78
   2   3  -1 8062.06  241.86
  -2  -3   1 8017.21  240.52
  -4  -6   2 3630.86  108.93
  -5  -4   3  741.68   22.25
   6  -7  -5  557.76   16.73
   3   8  -1 2101.10   63.03
  -5 -13   2  196.23    5.89
   6   9  -3  281.75    8.45
  -3  -1   2 1052.37   31.57
  -9   4   7  187.51    5.63
   4 -10  -4  213.28    6.40
   5   4  -3  347.95   10.44
  -2   4   2 9071.30  272.14
  -4   1   3 1502.59   45.08
  -7   7   6  840.15   25.20
   3   1  -2  562.18   16.87
  -8  -7   5  643.95   19.32
  -4   8   4  493.95   14.82
   4  -1  -3 2422.62   72.68
  -3   6   3 1265.55   37.97
  -3 -10   1  208.37    6.25
  -9   2   7  144.10    4.32
  10   1  -7  354.48   10.63
  -8   0   6  288.03    8.64
  -4  -8   2 2883.00   86.49
  -6  -4   4  986.14   29.58
  -3  13   4  142.21    4.27
   9  -4  -7  195.15    5.85
   1  -2  -1 3483.63  104.51
   7  -7  -6 1092.93   32.79
   3  -6  -3 1385.76   41.57
   8   7  -5  617.17   18.52
  -7 -11   4  223.60    6.71
  -5 -15   2  168.32    5.05
  -2  11   3  275.63    8.27
   4  -8  -4  121.22    3.64
   5  13  -2   73.93    2.22
   6   4  -4  789.16   23.67
  -8  -2   6  669.32   20.08
   8   0  -6  294.51    8.84
  -4  -1   3  333.14    9.99
  -7  -4   5   89.93    2.70
  -8   5   7  145.00    4.35
   3  10  -1  583.78   17.51
  -4  -4   2 1843.49   55.30
  -9  -6   5  717.51   21.53
   2  -6  -2 1890.88   56.73
   4   4  -2 5218.93  156.57
   3  -1  -2  477.87   14.34
   5   9  -2  210.90    6.33
  -3   8   3 1536.85   46.11
  -8 -10   4  251.99    7.56
  -8   6   6  251.92    7.56
  10   2  -6  150.14    4.50
   5  -7  -4  181.68    5.45
  -4   3   3 1343.32   40.30
   2  10   0  563.84   16.92
  -1 -22  -2   11.33     .34
  -7  -5   4  184.36    5.53
   9   6  -5 1018.99   30.57
  -3  -8   1 2390.16   71.70
   6   7  -3  342.28   10.27
   6  -9  -5  911.92   27.36
   4  -3  -3 1300.39   39.01
  -4  10   4  404.69   12.14
  -5   5   4  185.56    5.57
  -6   7   5  593.54   17.81
  -9  -1   6  305.50    9.16
   3  -8  -3 1129.18   33.88
   7   5  -4  123.42    3.70
 -10   1   7  200.75    6.02
   8  10  -4  340.61   10.22
   8  -6  -6  162.02    4.86
  -6  -9   3  192.27    5.77
   9   1  -6  162.81    4.88
 -10  -1   7  421.31   12.64
  10  -1  -7  109.76    3.29
   6   3  -3 1096.29   32.89
   4   2  -2 4901.08  147.03
  -3  -6   1  975.00   29.25
  -2  -1   1 2067.95   62.04
  -4  -2   2 5291.69  158.75
   2   1  -1 2012.67   60.38
   8   4  -4  404.92   12.15
 -10  -7   5  483.49   14.50
   1  12   1  629.15   18.87
  -6  11   5  643.59   19.31
  -4   5   3  362.21   10.87
   5   7  -2  169.73    5.09
   3   6  -1 1165.22   34.96
   7  -8  -5  231.52    6.95
  -7   6   5  453.19   13.60
   3 -10  -3  456.02   13.68
  -5   0   3  530.59   15.92
  -2   6   2 1602.16   48.06
 -11   2   7  230.76    6.92
   4  -5  -3  604.94   18.15
  -2 -10   0  304.34    9.13
  10   7  -5  296.09    8.88
   5   0  -3  430.33   12.91
  -5  -9   2  180.29    5.41
  -5   7   4  152.42    4.57
 -10  -2   6  277.12    8.31
   6 -11  -5  122.58    3.68
  -6   2   4   48.83    1.46
  -6   9   5  887.97   26.64
  -3   1   2  577.79   17.33
   7  -6  -5  573.24   17.20
  -2  13   3  226.24    6.79
   2  -8  -2 2219.20   66.58
   1  -4  -174228.59 2226.86
   3   4  -119485.51  584.57
  -3  -4   123619.87  708.60
  -5  -5   2  748.44   22.45
  -1   4   157390.85 1721.73
  -6  -1   3  822.74   24.68
 -11  -6   5  301.49    9.04
  -7  10   5  221.16    6.63
  -8  -2   4  269.86    8.10
   6   1  -3  892.30   26.77
  -7  -6   3  118.72    3.56
   7  -3  -4  337.05   10.11
   5   5  -2  548.41   16.45
  -1  11   2 1171.68   35.15
  11   6  -5  355.71   10.67
   4   9  -1  423.97   12.72
   8   2  -4  164.27    4.93
   7   6  -3  325.48    9.76
   7 -10  -5  233.57    7.01
  -6  -3   3  827.13   24.81
  -8  -4   4  313.04    9.39
  -3  10   3  417.26   12.52
  -7   8   5  639.52   19.19
   3  -5  -2 2070.27   62.11
  -4  -7   1  247.83    7.44
   7   2  -3 1871.42   56.14
  -2   8   2 8072.01  242.16
  -3  12   3  288.20    8.65
  -5  -3   2 1110.29   33.31
   4   7  -1  851.87   25.56
  -6   1   3 1938.87   58.17
   5   3  -2 1327.89   39.84
   4  -9  -3  427.33   12.82
   6  -1  -3 1444.12   43.32
  -2  -8   0 1116.52   33.50
  -6  -8   2  418.56   12.56
  -4   0   2 5496.93  164.91
   7  -5  -4  261.79    7.85
  -5   4   3  735.94   22.08
  -8   7   5  117.59    3.53
   4   0  -2 5566.59  167.00
   5  -4  -3  409.44   12.28
   7   4  -3  355.94   10.68
   2   8   0 1924.00   57.72
   6   8  -2  298.74    8.96
;
_shelx_hkl_checksum                27903
_olex2_exptl_crystal_mounting_method  'Copper grid with ultrathin carvon film'
_olex2_submission_special_instructions  'No special instructions were received'
# start Validation Reply Form
_vrf_RINTA01_cof-300-v_cryo
;
PROBLEM: The value of Rint is greater than 0.25
RESPONSE: Due to the dynamical effect of electron diffraction
;
_vrf_THETM01_cof-300-v_cryo
;
PROBLEM: The value of sine(theta_max)/wavelength is less than 0.575
RESPONSE: Due to the very short wavelength of electron
;
_vrf_PLAT020_cof-300-v_cryo
;
PROBLEM: The Value of Rint is Greater Than 0.12 .........      0.300 Report
RESPONSE: Due to the dynamical effect of electron diffraction
;
_vrf_PLAT029_cof-300-v_cryo
;
PROBLEM: _diffrn_measured_fraction_theta_full value Low .      0.501 Why?  
RESPONSE: Due to limitation of sample tilting and the beam sensitivity of sample
;
_vrf_PLAT051_cof-300-v_cryo
;
PROBLEM: Mu(calc) and Mu(CIF) Ratio Differs from 1.0 by .      84.73 %     
RESPONSE: Due to different atomic scattering factor for electron
;
_vrf_PLAT082_cof-300-v_cryo
;
PROBLEM: High R1 Value ..................................       0.32 Report
RESPONSE: Refinement is only based on kinematical assumption
;
_vrf_PLAT084_cof-300-v_cryo
;
PROBLEM: High wR2 Value (i.e. > 0.25) ...................       0.63 Report
RESPONSE: Refinement is only based on kinematical assumption
;
_vrf_PLAT183_cof-300-v_cryo
;
PROBLEM: Missing _cell_measurement_reflns_used Value ....     Please Do !  
RESPONSE: Not available in EDT 
;
_vrf_PLAT184_cof-300-v_cryo
;
PROBLEM: Missing _cell_measurement_theta_min Value ......     Please Do !  
RESPONSE: Not available in EDT
;
_vrf_PLAT185_cof-300-v_cryo
;
PROBLEM: Missing _cell_measurement_theta_max Value ......     Please Do !  
RESPONSE: Not available in EDT
;
_vrf_PLAT601_cof-300-v_cryo
;
PROBLEM: Structure Contains Solvent Accessible VOIDS of .        235 Ang**3
RESPONSE: As expected, it is a porous crystal
;
_vrf_PLAT660_cof-300-v_cryo
;
PROBLEM: No Valid _diffrn_radiation_type Value Reported .     Please Do !  
RESPONSE: electron
;
_vrf_PLAT340_cof-300-v_cryo
;
PROBLEM: Low Bond Precision on  C-C Bonds ...............    0.02714 Ang.  
RESPONSE: Refinement is only based on kinematical assumptione
;
_vrf_PLAT911_cof-300-v_cryo
;
PROBLEM: Missing FCF Refl Between Thmin & STh/L=    0.559        695 Report
RESPONSE: Due to limitation of sample tilting and the beam sensitivity of sample
;
_vrf_PLAT930_cof-300-v_cryo
;
PROBLEM: FCF-based   Twin Law ( 1 1 0)[ 1 1 0] Est.d BASF       0.18 Check 
RESPONSE: As suggested, we have attampted with twin but figured out without improvement for refinement.
;
# end Validation Reply Form
